256
frame 0
Ar 22.82373 0.00682 0.00524
Ar 0.00480 2.86374 2.84487
Ar 2.84851 22.81452 2.85241
Ar 2.85968 2.85248 0.00356
Ar 22.81065 0.00065 5.69991
Ar 0.01201 2.85872 8.56565
Ar 2.85242 0.00384 8.56365
Ar 2.85045 2.84921 5.70535
Ar 22.81962 22.81950 11.41018
Ar 22.81877 2.85789 14.25416
Ar 2.85847 22.81929 14.26137
Ar 2.84354 2.85164 11.41043
Ar 0.00114 22.81992 17.11876
Ar 0.01232 2.85544 19.96717
Ar 2.85936 22.82270 19.97519
Ar 2.85703 2.84994 17.10486
Ar 22.82139 5.70941 22.82149
Ar 0.00284 8.56534 2.84941
Ar 2.86127 5.71676 2.86056
Ar 2.86082 8.56615 0.01563
Ar 0.00110 5.70564 5.71028
Ar 22.81754 8.54795 8.55308
Ar 2.85538 5.70887 8.54858
Ar 2.83989 8.55645 5.70485
Ar 22.82344 5.71023 11.42056
Ar 0.00141 8.56282 14.25760
Ar 2.84474 5.70725 14.26968
Ar 2.85780 8.56269 11.41751
Ar 0.00539 5.69359 17.11307
Ar 0.00295 8.56271 19.96073
Ar 2.86087 5.70261 19.96951
Ar 2.85470 8.56376 17.10827
Ar 0.00662 11.41214 22.81881
Ar 22.82188 14.24960 2.84870
Ar 2.85407 11.40674 2.85089
Ar 2.85181 14.26494 0.00716
Ar 22.82360 11.40983 5.70984
Ar 0.01408 14.26225 8.56266
Ar 2.84199 11.42085 8.56366
Ar 2.86197 14.26420 5.69898
Ar 0.00591 11.41678 11.40617
Ar 22.81366 14.26769 14.26394
Ar 2.87075 11.40739 14.26149
Ar 2.85206 14.25317 11.40602
Ar 0.01112 11.41071 17.11394
Ar 22.81504 14.26859 19.97563
Ar 2.85458 11.40894 19.97321
Ar 2.85544 14.25993 17.12239
Ar 22.80925 17.10875 22.82202
Ar 22.82303 19.96260 2.85540
Ar 2.86007 17.12070 2.85469
Ar 2.85851 19.97337 22.81626
Ar 22.82238 17.12646 5.69833
Ar 0.00025 19.96792 8.55297
Ar 2.84587 17.11829 8.56130
Ar 2.85494 19.96066 5.70416
Ar 0.00220 17.12410 11.41674
Ar 0.00553 19.97812 14.27078
Ar 2.84722 17.11800 14.26022
Ar 2.83647 19.95905 11.42647
Ar 22.81610 17.10220 17.11410
Ar 0.01026 19.97028 19.97391
Ar 2.85096 17.11703 19.97981
Ar 2.85828 19.97000 17.12424
Ar 5.71319 22.82208 0.00201
Ar 5.70756 2.84804 2.86105
Ar 8.55766 22.81933 2.84164
Ar 8.55012 2.86310 22.81627
Ar 5.70876 22.82106 5.70965
Ar 5.70995 2.84730 8.55713
Ar 8.55949 0.00042 8.55894
Ar 8.55665 2.85695 5.71518
Ar 5.70952 22.81850 11.41485
Ar 5.70623 2.85580 14.27779
Ar 8.55734 22.82351 14.25903
Ar 8.55682 2.84872 11.42311
Ar 5.70790 22.81966 17.13136
Ar 5.69669 2.85854 19.97809
Ar 8.56275 22.82179 19.97022
Ar 8.55645 2.85803 17.10212
Ar 5.70230 5.70667 22.82011
Ar 5.69333 8.55695 2.84796
Ar 8.56430 5.71522 2.85362
Ar 8.54553 8.55727 22.81776
Ar 5.71049 5.71724 5.70832
Ar 5.71979 8.56902 8.56392
Ar 8.55290 5.70706 8.54994
Ar 8.56671 8.56026 5.71643
Ar 5.70870 5.69323 11.41754
Ar 5.71319 8.57104 14.25945
Ar 8.55348 5.70708 14.25888
Ar 8.55035 8.55208 11.43087
Ar 5.70238 5.69951 17.11584
Ar 5.70659 8.56821 19.97832
Ar 8.56493 5.70663 19.97289
Ar 8.55512 8.54898 17.13280
Ar 5.70337 11.41925 22.82261
Ar 5.70586 14.26421 2.84435
Ar 8.55892 11.41487 2.85948
Ar 8.56284 14.27224 0.00280
Ar 5.70639 11.39872 5.70306
Ar 5.71707 14.26603 8.56519
Ar 8.55793 11.40757 8.57377
Ar 8.56184 14.27545 5.71036
Ar 5.70436 11.39677 11.41332
Ar 5.69562 14.24992 14.27421
Ar 8.56433 11.41658 14.26602
Ar 8.55911 14.26806 11.41375
Ar 5.70685 11.41724 17.10177
Ar 5.71248 14.26078 19.97750
Ar 8.56738 11.40630 19.97702
Ar 8.56461 14.26009 17.11475
Ar 5.70682 17.10248 22.82118
Ar 5.70722 19.96762 2.84225
Ar 8.55620 17.12809 2.86232
Ar 8.55805 19.96511 0.00009
Ar 5.70596 17.11298 5.70387
Ar 5.71013 19.97705 8.54241
Ar 8.56555 17.11856 8.56707
Ar 8.55870 19.97365 5.71744
Ar 5.68543 17.12855 11.41346
Ar 5.69331 19.95229 14.26729
Ar 8.55176 17.12451 14.26662
Ar 8.55790 19.97744 11.41348
Ar 5.71093 17.12333 17.12034
Ar 5.71125 19.97602 19.96172
Ar 8.55694 17.11678 19.96852
Ar 8.54791 19.96670 17.12045
Ar 11.41313 0.01011 22.81994
Ar 11.40884 2.84870 2.85098
Ar 14.26065 22.81074 2.85552
Ar 14.27159 2.86033 22.81664
Ar 11.41048 0.01234 5.70540
Ar 11.41420 2.85159 8.56605
Ar 14.27145 0.01562 8.56257
Ar 14.26788 2.84430 5.70333
Ar 11.40698 22.82133 11.40313
Ar 11.42016 2.84540 14.26700
Ar 14.25614 0.00202 14.27651
Ar 14.25916 2.85514 11.41167
Ar 11.41375 0.00253 17.11375
Ar 11.41056 2.84859 19.96545
Ar 14.25636 0.00626 19.96604
Ar 14.26937 2.85644 17.11126
Ar 11.41900 5.69971 0.00447
Ar 11.42181 8.55371 2.84677
Ar 14.25832 5.72139 2.85057
Ar 14.25611 8.56421 22.82287
Ar 11.41155 5.69875 5.69083
Ar 11.40674 8.55138 8.54795
Ar 14.25727 5.69904 8.56459
Ar 14.26957 8.56209 5.70240
Ar 11.40308 5.70759 11.41521
Ar 11.41861 8.55835 14.26416
Ar 14.26684 5.69918 14.25952
Ar 14.26913 8.54990 11.41151
Ar 11.41710 5.70719 17.12101
Ar 11.40413 8.55772 19.96922
Ar 14.26891 5.70849 19.97131
Ar 14.27787 8.56239 17.11620
Ar 11.40766 11.41144 22.82027
Ar 11.42313 14.26862 2.85114
Ar 14.26042 11.40438 2.85140
Ar 14.27395 14.27053 22.82389
Ar 11.41294 11.39899 5.71155
Ar 11.41048 14.27425 8.55811
Ar 14.26168 11.41330 8.55499
Ar 14.27425 14.26682 5.70892
Ar 11.41436 11.40947 11.41572
Ar 11.41330 14.27697 14.26587
Ar 14.26770 11.40883 14.26295
Ar 14.26310 14.27393 11.41317
Ar 11.41899 11.41036 17.11618
Ar 11.39916 14.27089 19.98587
Ar 14.26385 11.42209 19.97759
Ar 14.26074 14.27051 17.11262
Ar 11.41041 17.12665 0.00193
Ar 11.40444 19.98098 2.84629
Ar 14.26437 17.11591 2.85272
Ar 14.25964 19.96005 0.01357
Ar 11.40599 17.11221 5.69008
Ar 11.41308 19.98011 8.56942
Ar 14.28445 17.12857 8.56264
Ar 14.26568 19.98115 5.70662
Ar 11.41389 17.11175 11.41354
Ar 11.42607 19.97083 14.26858
Ar 14.24902 17.12755 14.26839
Ar 14.27517 19.97293 11.40693
Ar 11.40308 17.12163 17.11849
Ar 11.40563 19.97061 19.96718
Ar 14.27010 17.11512 19.96301
Ar 14.26445 19.96696 17.12840
Ar 17.11472 22.81462 22.82374
Ar 17.11601 2.85441 2.85452
Ar 19.96357 22.82305 2.85223
Ar 19.96233 2.84845 0.00124
Ar 17.10655 22.81580 5.70255
Ar 17.11673 2.85568 8.54933
Ar 19.97231 0.00338 8.56918
Ar 19.96734 2.84577 5.69504
Ar 17.12100 0.00790 11.40684
Ar 17.12029 2.85803 14.27122
Ar 19.96764 0.00372 14.26453
Ar 19.96411 2.85430 11.41453
Ar 17.11116 0.00270 17.13185
Ar 17.10759 2.85754 19.97749
Ar 19.97126 0.00200 19.96942
Ar 19.98018 2.84627 17.11723
Ar 17.10450 5.70782 0.00267
Ar 17.10623 8.55254 2.85628
Ar 19.96725 5.69712 2.83575
Ar 19.97289 8.57162 22.82064
Ar 17.12044 5.70815 5.70521
Ar 17.11809 8.55904 8.55279
Ar 19.98756 5.72393 8.56091
Ar 19.98269 8.55262 5.70423
Ar 17.12521 5.69736 11.40284
Ar 17.11980 8.54469 14.27664
Ar 19.97564 5.70705 14.26951
Ar 19.96436 8.55200 11.41772
Ar 17.12412 5.70652 17.11771
Ar 17.11403 8.56814 19.96087
Ar 19.96485 5.70189 19.96058
Ar 19.96164 8.55152 17.12505
Ar 17.13017 11.41400 22.81297
Ar 17.11362 14.26367 2.85130
Ar 19.96823 11.41516 2.83980
Ar 19.96683 14.26609 0.00509
Ar 17.11979 11.41180 5.70526
Ar 17.11330 14.26532 8.55786
Ar 19.96609 11.42004 8.56746
Ar 19.96842 14.26905 5.71459
Ar 17.11985 11.41273 11.41579
Ar 17.10674 14.25507 14.26899
Ar 19.97296 11.42130 14.26202
Ar 19.97863 14.27219 11.42598
Ar 17.11261 11.40951 17.12034
Ar 17.11995 14.25811 19.96755
Ar 19.96220 11.42780 19.97101
Ar 19.97107 14.26075 17.11865
Ar 17.12355 17.11568 0.00031
Ar 17.13304 19.97728 2.85513
Ar 19.96824 17.11780 2.84840
Ar 19.97299 19.96631 22.81943
Ar 17.11528 17.11051 5.70771
Ar 17.13526 19.96650 8.54790
Ar 19.97746 17.11696 8.57275
Ar 19.97341 19.97696 5.70078
Ar 17.10679 17.11624 11.41657
Ar 17.11172 19.95950 14.26083
Ar 19.96749 17.11507 14.26459
Ar 19.98685 19.97045 11.40836
Ar 17.10998 17.12269 17.10687
Ar 17.12728 19.97012 19.96038
Ar 19.97160 17.11636 19.97905
Ar 19.96005 19.97151 17.11752
256
frame 1
Ar 22.82147 0.07467 0.05743
Ar 0.05262 2.97087 2.76398
Ar 2.80397 22.72045 2.84664
Ar 2.92631 2.84738 0.03929
Ar 22.67845 0.00713 5.63940
Ar 0.13125 2.91585 8.63203
Ar 2.84666 0.04175 8.61014
Ar 2.82524 2.81155 5.69893
Ar 22.77660 22.77537 11.39246
Ar 22.76722 2.90624 14.14652
Ar 2.91311 22.77289 14.22563
Ar 2.74978 2.83821 11.39532
Ar 0.01272 22.77985 17.12669
Ar 0.13519 2.87963 19.92956
Ar 2.92282 22.81046 20.01737
Ar 2.89700 2.81921 16.97452
Ar 22.79610 5.74374 22.79667
Ar 0.03094 8.62865 2.81365
Ar 2.94351 5.82368 2.93589
Ar 2.93848 8.63738 0.17067
Ar 0.01204 5.70177 5.75249
Ar 22.75430 8.43893 8.49481
Ar 2.87944 5.73769 8.44531
Ar 2.70944 8.53153 5.69368
Ar 22.81841 5.75267 11.50595
Ar 0.01536 8.60134 14.18438
Ar 2.76285 5.71989 14.31640
Ar 2.90570 8.59925 11.47237
Ar 0.05903 5.57033 17.06440
Ar 0.03237 8.59978 19.85878
Ar 2.93921 5.66939 19.95502
Ar 2.87202 8.61126 17.01173
Ar 0.07251 11.41384 22.76737
Ar 22.80133 14.09660 2.80610
Ar 2.86477 11.35488 2.83024
Ar 2.83980 14.26454 0.07839
Ar 22.81997 11.38851 5.74819
Ar 0.15386 14.23572 8.59904
Ar 2.73299 11.50856 8.60984
Ar 2.95140 14.25642 5.62916
Ar 0.06447 11.46436 11.34869
Ar 22.71185 14.29457 14.25377
Ar 3.04682 11.36175 14.22665
Ar 2.84302 14.13599 11.34725
Ar 0.12170 11.39828 17.07369
Ar 22.72644 14.30439 20.02219
Ar 2.87051 11.37887 19.99559
Ar 2.87969 14.20986 17.16666
Ar 22.66319 17.01698 22.80312
Ar 22.81381 19.87945 2.87892
Ar 2.93038 17.14774 2.87117
Ar 2.91351 19.99720 22.73977
Ar 22.80671 17.21064 5.62211
Ar 0.00283 19.93786 8.49295
Ar 2.77503 17.12151 8.58425
Ar 2.87437 19.85836 5.68586
Ar 0.02403 17.18480 11.46441
Ar 0.06030 20.04936 14.32911
Ar 2.78935 17.11760 14.21360
Ar 2.67185 19.84113 11.57034
Ar 22.73799 16.94550 17.07579
Ar 0.11226 19.96351 20.00328
Ar 2.83080 17.10744 20.06790
Ar 2.91086 19.96028 17.18677
Ar 5.78489 22.80352 0.02175
Ar 5.72327 2.79885 2.94136
Ar 8.54447 22.77351 2.72872
Ar 8.46189 2.96379 22.73996
Ar 5.73634 22.79236 5.74575
Ar 5.74921 2.79059 8.53885
Ar 8.56456 0.00486 8.55865
Ar 8.53353 2.89629 5.80652
Ar 5.74444 22.76413 11.44343
Ar 5.70844 2.88339 14.40501
Ar 8.54094 22.81873 14.20029
Ar 8.53540 2.80611 11.53395
Ar 5.72698 22.77721 17.26449
Ar 5.60438 2.91357 20.04875
Ar 8.60024 22.80053 19.96288
Ar 8.53145 2.90811 16.94467
Ar 5.66555 5.71357 22.78213
Ar 5.56800 8.53697 2.79817
Ar 8.61701 5.80722 2.85976
Ar 8.41168 8.54023 22.75644
Ar 5.75535 5.82945 5.73146
Ar 5.85686 8.66860 8.61319
Ar 8.49250 5.71759 8.46037
Ar 8.64356 8.57292 5.81992
Ar 5.73533 5.56621 11.47284
Ar 5.78487 8.69050 14.20512
Ar 8.49886 5.71784 14.19884
Ar 8.46481 8.48336 11.61863
Ar 5.66647 5.63534 17.09478
Ar 5.71224 8.66013 20.05140
Ar 8.62400 5.71283 19.99211
Ar 8.51657 8.44942 17.28026
Ar 5.67745 11.49179 22.80944
Ar 5.70479 14.25659 2.75849
Ar 8.55846 11.44364 2.92403
Ar 8.60127 14.34468 0.03115
Ar 5.71036 11.26671 5.67401
Ar 5.82734 14.27650 8.62711
Ar 8.54792 11.36381 8.72128
Ar 8.59025 14.37944 5.75389
Ar 5.68842 11.24601 11.42670
Ar 5.59269 14.10082 14.36558
Ar 8.61788 11.46240 14.27645
Ar 8.56025 14.29891 11.43184
Ar 5.71582 11.46924 16.94142
Ar 5.77725 14.21886 20.04234
Ar 8.65079 11.35008 20.03724
Ar 8.62066 14.21160 17.08295
Ar 5.71522 16.94858 22.79354
Ar 5.71948 19.93439 2.73538
Ar 8.52836 17.22895 2.95495
Ar 8.54863 19.90684 0.00061
Ar 5.70583 17.06347 5.68298
Ar 5.75111 20.03747 8.37784
Ar 8.63088 17.12494 8.64771
Ar 8.55626 20.00047 5.83120
Ar 5.48084 17.23376 11.42796
Ar 5.56701 19.76690 14.29055
Ar 8.47986 17.18965 14.28291
Ar 8.54709 20.04177 11.42850
Ar 5.75981 17.17614 17.14424
Ar 5.76369 20.02614 19.87041
Ar 8.53646 17.10508 19.94435
Ar 8.43794 19.92463 17.14490
Ar 11.42460 0.11080 22.77991
Ar 11.37756 2.80595 2.83070
Ar 14.21771 22.67949 2.88039
Ar 14.33723 2.93315 22.74425
Ar 11.39541 0.13523 5.69976
Ar 11.43598 2.83778 8.63636
Ar 14.33595 0.17100 8.59826
Ar 14.29676 2.75806 5.67658
Ar 11.35747 22.79545 11.31544
Ar 11.50135 2.76994 14.28705
Ar 14.16881 0.02196 14.39118
Ar 14.20149 2.87641 11.40888
Ar 11.43104 0.02752 17.07194
Ar 11.39651 2.80500 19.91033
Ar 14.17058 0.06849 19.91722
Ar 14.31314 2.89104 17.04479
Ar 11.48881 5.63724 0.04869
Ar 11.51920 8.50153 2.78479
Ar 14.19233 5.87424 2.82646
Ar 14.16801 8.61641 22.81166
Ar 11.40751 5.62656 5.54002
Ar 11.35482 8.47536 8.43858
Ar 14.18052 5.62985 8.62015
Ar 14.31521 8.59281 5.66694
Ar 11.31429 5.72342 11.44741
Ar 11.48469 8.55193 14.25635
Ar 14.28554 5.63143 14.20526
Ar 14.31069 8.45928 11.40678
Ar 11.46835 5.71910 17.15118
Ar 11.32649 8.54510 19.95208
Ar 14.30799 5.73370 19.97465
Ar 14.40596 8.59610 17.09870
Ar 11.36457 11.40614 22.78393
Ar 11.53425 14.30471 2.83251
Ar 14.21531 11.32897 2.83537
Ar 14.36333 14.32598 22.82321
Ar 11.42253 11.27003 5.76680
Ar 11.39585 14.36657 8.54939
Ar 14.22891 11.42648 8.51539
Ar 14.36639 14.28510 5.73810
Ar 11.43825 11.38451 11.45303
Ar 11.42639 14.39643 14.27479
Ar 14.29488 11.37743 14.24273
Ar 14.24442 14.36305 11.42513
Ar 11.48902 11.39430 17.09856
Ar 11.27182 14.33002 20.13419
Ar 14.25244 11.52301 20.04356
Ar 14.21839 14.32568 17.05956
Ar 11.39474 17.21312 0.02123
Ar 11.32916 20.08082 2.77979
Ar 14.25869 17.09574 2.85025
Ar 14.20676 19.85154 0.14835
Ar 11.34679 17.05543 5.53191
Ar 11.42441 20.07120 8.67309
Ar 14.47806 17.23437 8.59878
Ar 14.27249 20.08239 5.71309
Ar 11.43298 17.05047 11.42918
Ar 11.56596 19.96984 14.30441
Ar 14.09037 17.22285 14.30250
Ar 14.37673 19.99296 11.35664
Ar 11.31431 17.15823 17.12388
Ar 11.34239 19.96722 19.92969
Ar 14.32117 17.08674 19.88405
Ar 14.25912 19.92732 17.23234
Ar 17.08214 22.72158 22.82143
Ar 17.09608 2.86832 2.86954
Ar 19.89010 22.81423 2.84426
Ar 19.87623 2.80310 0.01331
Ar 16.99327 22.73489 5.66838
Ar 17.10476 2.88259 8.45303
Ar 19.98587 0.03715 8.67037
Ar 19.93129 2.77405 5.58608
Ar 17.15111 0.08654 11.35587
Ar 17.14350 2.90816 14.33344
Ar 19.93445 0.04061 14.26018
Ar 19.89617 2.86760 11.43989
Ar 17.04341 0.02972 17.26997
Ar 17.00447 2.90278 20.04233
Ar 19.97440 0.02201 19.95428
Ar 20.07202 2.77926 17.10995
Ar 16.97051 5.72659 0.02906
Ar 16.98973 8.48865 2.88875
Ar 19.93026 5.60908 2.66409
Ar 19.99213 8.69734 22.78728
Ar 17.14515 5.72966 5.69741
Ar 17.11945 8.55964 8.49112
Ar 20.15243 5.90183 8.58012
Ar 20.09933 8.48953 5.68616
Ar 17.19732 5.61143 11.31183
Ar 17.13819 8.40245 14.39256
Ar 20.02231 5.71750 14.31488
Ar 19.89867 8.48272 11.47512
Ar 17.18526 5.71132 17.11537
Ar 17.07484 8.65929 19.86082
Ar 19.90409 5.66093 19.85759
Ar 19.86923 8.47763 17.19546
Ar 17.25114 11.43420 22.70387
Ar 17.07041 14.25056 2.83446
Ar 19.94104 11.44674 2.70871
Ar 19.92565 14.27725 0.05571
Ar 17.13815 11.40999 5.69789
Ar 17.06702 14.26879 8.54710
Ar 19.91779 11.50031 8.65213
Ar 19.94337 14.30976 5.80020
Ar 17.13855 11.42019 11.45384
Ar 16.99490 14.15680 14.30914
Ar 19.99285 11.51375 14.23288
Ar 20.05477 14.34423 11.56511
Ar 17.05936 11.38522 17.14384
Ar 17.13963 14.19034 19.93343
Ar 19.87549 11.58518 19.97124
Ar 19.97180 14.21876 17.12534
Ar 17.17915 17.09309 0.00332
Ar 17.28295 20.03975 2.87631
Ar 19.94115 17.11593 2.80287
Ar 19.99336 19.92030 22.77434
Ar 17.08891 17.03662 5.72463
Ar 17.30777 19.92227 8.43770
Ar 20.04239 17.10677 8.70989
Ar 19.99785 20.03656 5.64906
Ar 16.99594 17.09892 11.46257
Ar 17.04948 19.84582 14.21953
Ar 19.93278 17.08649 14.26093
Ar 20.14493 19.96536 11.37268
Ar 17.03053 17.16930 16.99638
Ar 17.21980 19.96159 19.85547
Ar 19.97772 17.10028 20.05917
Ar 19.85173 19.97692 17.11294
256
frame 2
Ar 22.81898 0.14114 0.10840
Ar 0.10006 3.07659 2.68484
Ar 2.76055 22.62729 2.84141
Ar 2.99194 2.84226 0.07610
Ar 22.54994 0.01396 5.57975
Ar 0.24567 2.97275 8.69630
Ar 2.84100 0.07732 8.65579
Ar 2.80065 2.77423 5.69213
Ar 22.73586 22.73324 11.37594
Ar 22.71646 2.95137 14.04095
Ar 2.96735 22.72723 14.19081
Ar 2.66016 2.82537 11.38294
Ar 0.02532 22.74077 17.13489
Ar 0.25711 2.90247 19.89299
Ar 2.98515 22.79948 20.05917
Ar 2.93435 2.78693 16.84804
Ar 22.77231 5.77883 22.77028
Ar 0.05748 8.69078 2.77805
Ar 3.02199 5.92518 3.01005
Ar 3.01130 8.70616 0.31639
Ar 0.02309 5.69508 5.79080
Ar 22.70112 8.34133 8.44047
Ar 2.90478 5.76629 8.34500
Ar 2.58183 8.50923 5.68334
Ar 22.81378 5.79526 11.58850
Ar 0.02873 8.64076 14.11310
Ar 2.68417 5.73277 14.36056
Ar 2.95200 8.63280 11.52492
Ar 0.11140 5.44997 17.01716
Ar 0.06138 8.63556 19.75810
Ar 3.01473 5.63927 19.93999
Ar 2.89086 8.65714 16.91657
Ar 0.13695 11.41549 22.71562
Ar 22.78129 13.94661 2.76502
Ar 2.87523 11.30663 2.81228
Ar 2.82665 14.26375 0.14789
Ar 22.81553 11.36810 5.78599
Ar 0.28645 14.21399 8.63301
Ar 2.63112 11.58872 8.65133
Ar 3.03937 14.24788 5.56032
Ar 0.11927 11.50897 11.29475
Ar 22.61639 14.32009 14.24481
Ar 3.21209 11.31555 14.19090
Ar 2.83702 14.02381 11.29369
Ar 0.22994 11.38728 17.03299
Ar 22.64010 14.33797 20.06786
Ar 2.88682 11.35018 20.01740
Ar 2.90291 14.16134 17.21154
Ar 22.52215 16.92711 22.78699
Ar 22.80456 19.79893 2.89895
Ar 2.99914 17.17341 2.88539
Ar 2.96866 20.01991 22.66545
Ar 22.79073 17.29031 5.54814
Ar 0.00571 19.90935 8.43327
Ar 2.70567 17.12457 8.60608
Ar 2.89386 19.75885 5.66759
Ar 0.04341 17.24022 11.51180
Ar 0.11149 20.11860 14.38943
Ar 2.72970 17.11181 14.17246
Ar 2.51105 19.73147 11.70803
Ar 22.66163 16.79287 17.03914
Ar 0.21133 19.95672 20.03207
Ar 2.81129 17.09649 20.15433
Ar 2.96189 19.95004 17.24837
Ar 5.85473 22.78570 0.03936
Ar 5.73905 2.75095 3.02072
Ar 8.53144 22.72960 2.61865
Ar 8.37568 3.06231 22.66598
Ar 5.76314 22.76541 5.77847
Ar 5.78671 2.73492 8.52197
Ar 8.56958 0.01051 8.55907
Ar 8.51119 2.93440 5.89482
Ar 5.77724 22.71033 11.47106
Ar 5.70957 2.90821 14.52561
Ar 8.52518 22.81245 14.14494
Ar 8.51492 2.76390 11.64232
Ar 5.74581 22.73862 17.39264
Ar 5.51532 2.96562 20.11606
Ar 8.63718 22.78048 19.95587
Ar 8.50957 2.95703 16.79187
Ar 5.62904 5.72152 22.74619
Ar 5.45210 8.51945 2.75295
Ar 8.66718 5.89817 2.86477
Ar 8.28135 8.52347 22.69865
Ar 5.79906 5.94092 5.75330
Ar 5.98953 8.76302 8.66157
Ar 8.43424 5.72738 8.37553
Ar 8.71687 8.58518 5.91770
Ar 5.75949 5.44110 11.52659
Ar 5.85384 8.80319 14.15816
Ar 8.44589 5.72690 14.14411
Ar 8.38492 8.41713 11.79812
Ar 5.63111 5.57461 17.07504
Ar 5.71560 8.75044 20.12164
Ar 8.68121 5.71722 20.01128
Ar 8.47735 8.35220 17.42295
Ar 5.65300 11.56308 22.79776
Ar 5.70482 14.24849 2.67587
Ar 8.55866 11.47169 2.98724
Ar 8.63867 14.41568 0.06228
Ar 5.71367 11.13678 5.64570
Ar 5.93495 14.28649 8.68830
Ar 8.54119 11.32221 8.86742
Ar 8.61727 14.47975 5.79652
Ar 5.67449 11.10358 11.43840
Ar 5.49459 13.96338 14.44911
Ar 8.67194 11.50733 14.28605
Ar 8.56120 14.32911 11.45189
Ar 5.72754 11.51466 16.79257
Ar 5.84156 14.17650 20.10397
Ar 8.73099 11.29657 20.09508
Ar 8.67572 14.16438 17.05263
Ar 5.72376 16.79981 22.76628
Ar 5.73116 19.90164 2.63089
Ar 8.49975 17.32809 3.04385
Ar 8.53850 19.84912 22.82276
Ar 5.70628 17.01529 5.66331
Ar 5.78912 20.09476 8.22013
Ar 8.69434 17.13354 8.72734
Ar 8.55716 20.02664 5.94063
Ar 5.28088 17.33491 11.43947
Ar 5.44269 19.58855 14.31451
Ar 8.40967 17.25288 14.29800
Ar 8.53610 20.10324 11.44337
Ar 5.80566 17.22371 17.16928
Ar 5.81460 20.07273 19.78616
Ar 8.51537 17.09412 19.92117
Ar 8.33280 19.88514 17.16663
Ar 11.43570 0.20979 22.74006
Ar 11.34661 2.76374 2.80944
Ar 14.17574 22.55244 2.90288
Ar 14.39865 3.00274 22.67580
Ar 11.37961 0.25552 5.69514
Ar 11.45512 2.82501 8.70493
Ar 14.39869 0.32218 8.63329
Ar 14.32452 2.67501 5.64879
Ar 11.31002 22.77220 11.23272
Ar 11.57894 2.69766 14.30550
Ar 14.08726 0.04010 14.50241
Ar 14.14560 2.89693 11.40770
Ar 11.44545 0.05118 17.03236
Ar 11.38231 2.76419 19.85490
Ar 14.08597 0.12915 19.86975
Ar 14.35606 2.92640 16.98147
Ar 11.55644 5.57561 0.09031
Ar 11.60982 8.45378 2.72460
Ar 14.13008 6.01922 2.80301
Ar 14.08260 8.66829 22.79749
Ar 11.40444 5.55526 5.39345
Ar 11.30657 8.39819 8.33484
Ar 14.10495 5.56190 8.67331
Ar 14.35877 8.62210 5.63401
Ar 11.22634 5.73834 11.47883
Ar 11.55000 8.54478 14.24982
Ar 14.30412 5.56520 14.15184
Ar 14.35242 8.36955 11.40184
Ar 11.51956 5.73064 17.17988
Ar 11.25303 8.53216 19.93661
Ar 14.34525 5.76024 19.97643
Ar 14.52849 8.62768 17.08149
Ar 11.32222 11.40098 22.75033
Ar 11.64347 14.33822 2.81271
Ar 14.17162 11.25637 2.81922
Ar 14.45102 14.38074 22.82197
Ar 11.43232 11.14540 5.81999
Ar 11.38308 14.45669 8.54055
Ar 14.19689 11.43922 8.47740
Ar 14.45501 14.30213 5.76630
Ar 11.46226 11.36004 11.48969
Ar 11.43829 14.51272 14.28367
Ar 14.32101 11.34552 14.22249
Ar 14.22549 14.44935 11.43697
Ar 11.55855 11.37839 17.08164
Ar 11.14895 14.38877 20.27851
Ar 14.24016 11.62278 20.10797
Ar 14.17554 14.37994 17.00804
Ar 11.37841 17.29720 0.04072
Ar 11.25399 20.17853 2.71589
Ar 14.25468 17.07657 2.84925
Ar 14.15649 19.74563 0.27917
Ar 11.29145 17.00267 5.37815
Ar 11.43675 20.15925 8.77313
Ar 14.66607 17.33887 8.63264
Ar 14.27672 20.17900 5.72109
Ar 11.45152 16.99348 11.44437
Ar 11.69897 19.97242 14.33901
Ar 13.93806 17.31377 14.33623
Ar 14.47626 20.01513 11.30690
Ar 11.22621 17.19446 17.12997
Ar 11.27991 19.96399 19.89312
Ar 14.37116 17.05799 19.80771
Ar 14.25311 19.88991 17.33424
Ar 17.04890 22.62961 22.81810
Ar 17.07410 2.88121 2.88344
Ar 19.81918 22.80700 2.83443
Ar 19.79054 2.75732 0.02331
Ar 16.88504 22.65778 5.63520
Ar 17.09462 2.90986 8.35739
Ar 19.99969 0.07109 8.76776
Ar 19.89532 2.70456 5.47896
Ar 17.18000 0.16392 11.30665
Ar 17.16708 2.95719 14.39438
Ar 19.90136 0.07609 14.25584
Ar 19.83133 2.88146 11.46438
Ar 16.97665 0.05750 17.40480
Ar 16.90515 2.94667 20.10385
Ar 19.97823 0.04179 19.94020
Ar 20.16202 2.71332 17.10266
Ar 16.83955 5.74762 0.05458
Ar 16.87792 8.42772 2.91889
Ar 19.89313 5.52441 2.49572
Ar 20.01165 8.81964 22.75218
Ar 17.16972 5.75044 5.68940
Ar 17.12131 8.56024 8.43060
Ar 20.30651 6.06747 8.60021
Ar 20.21244 8.42876 5.66517
Ar 17.26717 5.52726 11.22208
Ar 17.15684 8.26339 14.50354
Ar 20.06835 5.72706 14.36013
Ar 19.83370 8.41618 11.53257
Ar 17.24316 5.71254 17.11419
Ar 17.03620 8.74838 19.76598
Ar 19.84507 5.61926 19.75833
Ar 19.78106 8.40752 17.26361
Ar 17.36546 11.45412 22.59842
Ar 17.02834 14.23698 2.81817
Ar 19.91390 11.47696 2.58171
Ar 19.88449 14.28796 0.10458
Ar 17.15702 11.40816 5.68996
Ar 17.02227 14.27202 8.53891
Ar 19.87111 11.57927 8.73630
Ar 19.91952 14.34996 5.88437
Ar 17.15622 11.42723 11.49132
Ar 16.88550 14.06199 14.34867
Ar 20.01176 11.60239 14.20512
Ar 20.12702 14.41511 11.69828
Ar 17.00770 11.36364 17.16540
Ar 17.15681 14.12821 19.89875
Ar 19.79498 11.73711 19.96950
Ar 19.97043 14.17751 17.13100
Ar 17.23317 17.07168 0.00596
Ar 17.42789 20.09762 2.89633
Ar 19.91402 17.11322 2.75951
Ar 20.01401 19.87640 22.73006
Ar 17.06522 16.96579 5.73945
Ar 17.47880 19.87972 8.33028
Ar 20.10674 17.09498 8.84466
Ar 20.02226 20.09416 5.59855
Ar 16.89010 17.08060 11.50993
Ar 16.98792 19.73653 14.17877
Ar 19.89757 17.05996 14.25816
Ar 20.29884 19.96022 11.33933
Ar 16.95258 17.21253 16.88779
Ar 17.30894 19.95186 19.75548
Ar 19.98189 17.08376 20.13503
Ar 19.74723 19.98217 17.10596
256
frame 3
Ar 22.81586 0.20598 0.15744
Ar 0.14750 3.18100 2.60881
Ar 2.71885 22.53466 2.83720
Ar 3.05553 2.83643 0.11607
Ar 22.42899 0.02205 5.52097
Ar 0.34914 3.03049 8.75380
Ar 2.83604 0.10909 8.70027
Ar 2.77665 2.73696 5.68463
Ar 22.70177 22.69665 11.36237
Ar 22.66639 2.98980 13.93928
Ar 3.02178 22.68241 14.15715
Ar 2.58073 2.81332 11.37950
Ar 0.04006 22.70342 17.14488
Ar 0.37887 2.92243 19.85809
Ar 3.04549 22.79123 20.10068
Ar 2.96317 2.75072 16.73056
Ar 22.75104 5.81620 22.74004
Ar 0.08060 8.75152 2.74206
Ar 3.08947 6.01080 3.08291
Ar 3.06539 8.76885 0.43087
Ar 0.03514 5.68034 5.82104
Ar 22.69594 8.29146 8.39260
Ar 2.93297 5.79433 8.24909
Ar 2.45879 8.49318 5.67438
Ar 22.80957 5.83906 11.66483
Ar 0.04128 8.68320 14.04483
Ar 2.61217 5.74628 14.39881
Ar 2.99328 8.65852 11.57349
Ar 0.16035 5.33361 16.97386
Ar 0.08981 8.66913 19.65852
Ar 3.08308 5.61699 19.92318
Ar 2.91311 8.69987 16.82341
Ar 0.19922 11.41654 22.66276
Ar 22.76248 13.80090 2.72658
Ar 2.88495 11.26982 2.80311
Ar 2.81052 14.26230 0.21463
Ar 22.80940 11.34949 5.82324
Ar 0.39804 14.20858 8.66021
Ar 2.55012 11.64440 8.67766
Ar 3.12515 14.23709 5.49257
Ar 0.16295 11.54658 11.25056
Ar 22.53798 14.34287 14.24211
Ar 3.34488 11.26289 14.15086
Ar 2.84134 13.92486 11.25543
Ar 0.33478 11.37954 16.99033
Ar 22.55783 14.36671 20.11143
Ar 2.90384 11.32393 20.03807
Ar 2.92424 14.11555 17.25897
Ar 22.39254 16.84140 22.77844
Ar 22.79532 19.72516 2.90974
Ar 3.06599 17.19621 2.89498
Ar 3.02586 20.04109 22.59553
Ar 22.77344 17.35977 5.48035
Ar 0.00914 19.88376 8.37352
Ar 2.63834 17.12814 8.62578
Ar 2.91400 19.66395 5.64956
Ar 0.05108 17.27728 11.55807
Ar 0.15356 20.18503 14.45664
Ar 2.66373 17.08980 14.14640
Ar 2.36262 19.64885 11.83025
Ar 22.58878 16.64771 17.00629
Ar 0.30538 19.95029 20.06014
Ar 2.79274 17.08225 20.23867
Ar 3.01015 19.93930 17.30865
Ar 5.92013 22.76950 0.05120
Ar 5.75510 2.70456 3.09906
Ar 8.51873 22.69016 2.51380
Ar 8.29313 3.15629 22.59680
Ar 5.78862 22.74565 5.80200
Ar 5.82049 2.68067 8.50842
Ar 8.57428 0.01880 8.56078
Ar 8.49076 2.96959 5.97697
Ar 5.80589 22.65796 11.49624
Ar 5.70858 2.92619 14.62717
Ar 8.51134 22.80314 14.09731
Ar 8.49649 2.72260 11.74635
Ar 5.76394 22.71283 17.50845
Ar 5.43365 3.00963 20.17635
Ar 8.67373 22.76225 19.94992
Ar 8.49851 3.00393 16.64905
Ar 5.59210 5.73281 22.71444
Ar 5.36941 8.50966 2.72600
Ar 8.71206 5.98867 2.86668
Ar 8.15871 8.50671 22.64987
Ar 5.84014 6.05285 5.77129
Ar 6.11321 8.84280 8.70579
Ar 8.38032 5.73627 8.30143
Ar 8.77692 8.59704 5.99972
Ar 5.77826 5.31794 11.57709
Ar 5.91264 8.89897 14.13806
Ar 8.39557 5.72815 14.10415
Ar 8.32398 8.35841 11.95137
Ar 5.59649 5.52143 17.05917
Ar 5.71193 8.83874 20.18495
Ar 8.73592 5.71669 20.03170
Ar 8.43480 8.25941 17.55600
Ar 5.63107 11.63116 22.78934
Ar 5.70717 14.23898 2.60060
Ar 8.56014 11.49924 3.04886
Ar 8.67203 14.48409 0.10285
Ar 5.71525 11.00862 5.61777
Ar 6.03848 14.29602 8.74842
Ar 8.54447 11.28734 9.01311
Ar 8.64049 14.57339 5.83816
Ar 5.66615 10.98403 11.44265
Ar 5.40955 13.87036 14.50428
Ar 8.72774 11.55112 14.29315
Ar 8.56322 14.35819 11.47634
Ar 5.74932 11.53317 16.68259
Ar 5.90598 14.13256 20.15802
Ar 8.80371 11.24901 20.14748
Ar 8.72955 14.11942 17.02531
Ar 5.73183 16.66210 22.73962
Ar 5.74089 19.86998 2.52965
Ar 8.46728 17.42549 3.12446
Ar 8.52622 19.79188 22.81578
Ar 5.70765 16.96948 5.64616
Ar 5.81750 20.14340 8.08012
Ar 8.75438 17.14724 8.80561
Ar 8.56990 20.05088 6.03944
Ar 5.09022 17.42633 11.44131
Ar 5.32191 19.42626 14.34137
Ar 8.34347 17.31262 14.31067
Ar 8.52521 20.15873 11.45742
Ar 5.84423 17.25859 17.19797
Ar 5.86102 20.10901 19.72225
Ar 8.49237 17.08505 19.90007
Ar 8.24056 19.85194 17.18079
Ar 11.44629 0.30642 22.70058
Ar 11.31563 2.72183 2.78556
Ar 14.13555 22.43422 2.91940
Ar 14.44681 3.06422 22.61806
Ar 11.36187 0.37144 5.69279
Ar 11.46803 2.81371 8.77021
Ar 14.45736 0.46530 8.66750
Ar 14.35024 2.59789 5.61819
Ar 11.26612 22.75857 11.16345
Ar 11.64783 2.63348 14.32018
Ar 14.02137 0.05310 14.60661
Ar 14.09287 2.91610 11.41059
Ar 11.45172 0.07202 16.99955
Ar 11.36675 2.72950 19.79813
Ar 14.00287 0.18743 19.82437
Ar 14.39757 2.96393 16.92485
Ar 11.61976 5.51459 0.12665
Ar 11.67871 8.42122 2.66879
Ar 14.08093 6.14118 2.78097
Ar 14.00276 8.71960 22.77530
Ar 11.40348 5.48513 5.25529
Ar 11.27143 8.31566 8.24684
Ar 14.03141 5.49631 8.72257
Ar 14.39771 8.64939 5.60760
Ar 11.13980 5.75156 11.50866
Ar 11.61486 8.53613 14.24521
Ar 14.32229 5.50191 14.09950
Ar 14.39500 8.28057 11.39674
Ar 11.57124 5.74156 17.20637
Ar 11.18897 8.51801 19.92519
Ar 14.37868 5.79066 19.97450
Ar 14.63628 8.65366 17.06352
Ar 11.28219 11.39601 22.72341
Ar 11.75030 14.36494 2.78854
Ar 14.13018 11.18948 2.80312
Ar 14.53613 14.43503 22.81917
Ar 11.44361 11.02954 5.86807
Ar 11.37426 14.54285 8.53116
Ar 14.16634 11.45140 8.44200
Ar 14.53592 14.31595 5.79210
Ar 11.48701 11.33642 11.52578
Ar 11.44654 14.62249 14.29312
Ar 14.34429 11.31082 14.20205
Ar 14.20573 14.52935 11.44864
Ar 11.62816 11.36238 17.06564
Ar 11.03691 14.44683 20.41353
Ar 14.22609 11.72110 20.17011
Ar 14.13129 14.43296 16.95907
Ar 11.35932 17.37582 0.06077
Ar 11.17836 20.27166 2.65649
Ar 14.25472 17.05745 2.85270
Ar 14.11272 19.64577 0.40299
Ar 11.24612 16.95870 5.23314
Ar 11.45125 20.23798 8.86352
Ar 14.84356 17.44169 8.66010
Ar 14.27205 20.26248 5.73498
Ar 11.46802 16.94548 11.45804
Ar 11.81157 19.99183 14.37156
Ar 13.80611 17.38767 14.36989
Ar 14.57219 20.04291 11.25789
Ar 11.13857 17.23045 17.13717
Ar 11.21805 19.96089 19.85780
Ar 14.42000 17.02708 19.73648
Ar 14.24516 19.85778 17.43253
Ar 17.01417 22.53872 22.81260
Ar 17.04801 2.89248 2.89501
Ar 19.75498 22.80615 2.81975
Ar 19.70429 2.70807 0.02843
Ar 16.78991 22.59108 5.60392
Ar 17.08890 2.93838 8.26184
Ar 20.01423 0.10552 8.85790
Ar 19.85813 2.63971 5.37428
Ar 17.20578 0.23976 11.26065
Ar 17.19274 3.00455 14.45286
Ar 19.86860 0.10937 14.25104
Ar 19.77377 2.89505 11.48822
Ar 16.91147 0.08797 17.53439
Ar 16.81661 2.98786 20.15534
Ar 19.98329 0.06104 19.92806
Ar 20.24968 2.64907 17.09490
Ar 16.71478 5.77486 0.07975
Ar 16.77756 8.37376 2.94353
Ar 19.85481 5.44643 2.33291
Ar 20.03401 8.93497 22.71263
Ar 17.19443 5.76999 5.68069
Ar 17.12438 8.56093 8.37190
Ar 20.41317 6.18530 8.62607
Ar 20.31861 8.37235 5.63654
Ar 17.33120 5.44744 11.13333
Ar 17.17679 8.13100 14.60163
Ar 20.11363 5.73506 14.40595
Ar 19.76889 8.35428 11.59148
Ar 17.29214 5.70287 17.11668
Ar 16.99894 8.83313 19.68516
Ar 19.79045 5.57400 19.66724
Ar 19.70256 8.34616 17.32729
Ar 17.46244 11.47363 22.50225
Ar 16.98842 14.22235 2.80319
Ar 19.88649 11.50431 2.46323
Ar 19.84230 14.29796 0.14975
Ar 17.17692 11.40657 5.68101
Ar 16.98020 14.27432 8.53623
Ar 19.82704 11.65714 8.82034
Ar 19.89782 14.38967 5.96715
Ar 17.17211 11.43353 11.52804
Ar 16.78149 13.97377 14.38709
Ar 20.02836 11.68341 14.17986
Ar 20.18784 14.48342 11.81349
Ar 16.96025 11.35085 17.18173
Ar 17.16367 14.08202 19.86228
Ar 19.73419 11.87493 19.96132
Ar 19.96423 14.13701 17.13368
Ar 17.28389 17.05277 0.00801
Ar 17.56091 20.14337 2.91274
Ar 19.88648 17.10926 2.72091
Ar 20.03511 19.83693 22.68732
Ar 17.04762 16.90111 5.74918
Ar 17.64868 19.84000 8.22761
Ar 20.17041 17.07906 8.97599
Ar 20.04796 20.14756 5.54959
Ar 16.79572 17.05887 11.56281
Ar 16.92739 19.63611 14.13823
Ar 19.86048 17.03938 14.25902
Ar 20.44451 19.95467 11.31045
Ar 16.87649 17.24816 16.78274
Ar 17.38973 19.93861 19.66828
Ar 19.98038 17.06627 20.20081
Ar 19.65224 19.98767 17.08944
256
frame 4
Ar 22.81150 0.27020 0.20451
Ar 0.19604 3.28603 2.53663
Ar 2.67885 22.44042 2.83449
Ar 3.11614 2.82855 0.16321
Ar 22.32095 0.03374 5.46237
Ar 0.43242 3.09214 8.79461
Ar 2.83259 0.13607 8.74400
Ar 2.75260 2.69868 5.67600
Ar 22.68192 22.67200 11.35435
Ar 22.61591 3.01708 13.84325
Ar 3.07804 22.63778 14.12434
Ar 2.52153 2.80127 11.39740
Ar 0.05854 22.66884 17.16003
Ar 0.50344 2.93756 19.82537
Ar 3.10338 22.78776 20.14243
Ar 2.97189 2.70667 16.62908
Ar 22.73299 5.85858 22.70256
Ar 0.09788 8.81174 2.70416
Ar 3.13443 6.06419 3.15591
Ar 3.07533 8.82023 0.47576
Ar 0.04895 5.65028 5.83993
Ar 22.79439 8.34003 8.35073
Ar 2.96645 5.82161 8.15754
Ar 2.34156 8.48840 5.66652
Ar 22.80550 5.88648 11.73047
Ar 0.05286 8.73256 13.98021
Ar 2.55145 5.76156 14.42636
Ar 3.02372 8.66852 11.61629
Ar 0.20237 5.22009 16.93836
Ar 0.11798 8.69999 19.55825
Ar 3.13729 5.61112 19.90233
Ar 2.94135 8.73740 16.73215
Ar 0.25934 11.41598 22.60711
Ar 22.74599 13.65889 2.69180
Ar 2.89338 11.25726 2.81340
Ar 2.78870 14.26004 0.27855
Ar 22.80025 11.33403 5.86044
Ar 0.46771 14.23961 8.67492
Ar 2.51102 11.64678 8.67152
Ar 3.20892 14.22167 5.42479
Ar 0.18403 11.57196 11.22488
Ar 22.49568 14.35996 14.25693
Ar 3.41323 11.19556 14.10152
Ar 2.86776 13.85012 11.24766
Ar 0.43609 11.37720 16.94305
Ar 22.48137 14.38717 20.15095
Ar 2.92193 11.30121 20.05676
Ar 2.94382 14.07322 17.31212
Ar 22.28397 16.76329 22.78606
Ar 22.78622 19.66516 2.90080
Ar 3.13145 17.21408 2.89670
Ar 3.08885 20.06027 22.53253
Ar 22.75310 17.41002 5.42617
Ar 0.01317 19.86238 8.31210
Ar 2.57262 17.13408 8.64218
Ar 2.93569 19.57472 5.63258
Ar 0.02854 17.27017 11.60125
Ar 0.17842 20.24917 14.53977
Ar 2.58382 17.03423 14.14864
Ar 2.24305 19.62662 11.92504
Ar 22.52183 16.51424 16.98139
Ar 0.39296 19.94492 20.08734
Ar 2.77508 17.06195 20.32194
Ar 3.05476 19.92818 17.36822
Ar 5.97681 22.75599 0.05100
Ar 5.77192 2.65906 3.17738
Ar 8.50637 22.65945 2.41695
Ar 8.21522 3.24283 22.53563
Ar 5.81265 22.74387 5.80637
Ar 5.84799 2.62746 8.50094
Ar 8.57809 0.03135 8.56425
Ar 8.47403 2.99913 6.04900
Ar 5.82765 22.60798 11.51712
Ar 5.70441 2.93108 14.68909
Ar 8.50108 22.78782 14.06372
Ar 8.48152 2.68358 11.84444
Ar 5.78096 22.71575 17.60078
Ar 5.36569 3.03692 20.22524
Ar 8.71054 22.74626 19.94598
Ar 8.51263 3.04802 16.52334
Ar 5.55271 5.75114 22.68957
Ar 5.36205 8.51605 2.74192
Ar 8.74819 6.08144 2.86232
Ar 8.05041 8.48868 22.61925
Ar 5.87617 6.16904 5.78111
Ar 6.22161 8.89202 8.73828
Ar 8.33343 5.74501 8.24666
Ar 8.80401 8.60974 6.04880
Ar 5.78779 5.19464 11.62236
Ar 5.94908 8.96451 14.17852
Ar 8.34856 5.70875 14.09409
Ar 8.30578 8.31545 12.04689
Ar 5.56222 5.48142 17.05144
Ar 5.69256 8.92655 20.23374
Ar 8.78933 5.70601 20.05650
Ar 8.38352 8.17390 17.67342
Ar 5.61191 11.69281 22.78674
Ar 5.71351 14.22622 2.53882
Ar 8.56364 11.52715 3.10983
Ar 8.69446 14.54941 0.16697
Ar 5.71377 10.87951 5.58953
Ar 6.13785 14.30537 8.80745
Ar 8.57010 11.26828 9.16254
Ar 8.65628 14.65769 5.88025
Ar 5.66862 10.90789 11.43007
Ar 5.34542 13.87469 14.50101
Ar 8.78727 11.59374 14.29549
Ar 8.56857 14.38622 11.50884
Ar 5.79403 11.49324 16.65217
Ar 5.97289 14.08479 20.19767
Ar 8.86233 11.21121 20.18960
Ar 8.78290 14.07737 17.00278
Ar 5.73749 16.54326 22.71288
Ar 5.74635 19.84036 2.43066
Ar 8.42491 17.52350 3.19161
Ar 8.50943 19.73439 22.79989
Ar 5.71017 16.92672 5.63310
Ar 5.82313 20.17330 7.97511
Ar 8.80949 17.17001 8.88328
Ar 8.61039 20.07149 6.11897
Ar 4.91392 17.50067 11.42299
Ar 5.20615 19.29059 14.37581
Ar 8.28345 17.36781 14.31951
Ar 8.51553 20.20439 11.46943
Ar 5.86922 17.26989 17.23442
Ar 5.89809 20.12265 19.70105
Ar 8.46526 17.07942 19.88232
Ar 8.17404 19.83100 17.17879
Ar 11.45638 0.40132 22.66122
Ar 11.28352 2.67875 2.75627
Ar 14.09775 22.33025 2.92439
Ar 14.46495 3.11025 22.58365
Ar 11.34016 0.48240 5.69448
Ar 11.46949 2.80378 8.83088
Ar 14.50930 0.59682 8.70098
Ar 14.37323 2.52907 5.58181
Ar 11.22616 22.76899 11.12258
Ar 11.70063 2.58523 14.32792
Ar 13.98815 0.05564 14.69967
Ar 14.04417 2.93313 11.42135
Ar 11.44029 0.08829 16.98127
Ar 11.34681 2.70561 19.73774
Ar 13.92096 0.24243 19.78175
Ar 14.43737 3.00577 16.87884
Ar 11.67656 5.45311 0.15513
Ar 11.69749 8.42453 2.61993
Ar 14.06191 6.21264 2.76185
Ar 13.93150 8.77046 22.73747
Ar 11.40649 5.41529 5.12942
Ar 11.26758 8.21868 8.19238
Ar 13.96041 5.43437 8.76678
Ar 14.42853 8.67481 5.59381
Ar 11.05459 5.76229 11.53612
Ar 11.68072 8.52487 14.24282
Ar 14.33982 5.44302 14.04801
Ar 14.43996 8.19077 11.39148
Ar 11.62469 5.75189 17.23048
Ar 11.14145 8.50094 19.92075
Ar 14.40617 5.82892 19.96592
Ar 14.71496 8.66849 17.04155
Ar 11.24756 11.39164 22.70940
Ar 11.85594 14.37815 2.75458
Ar 14.09170 11.13151 2.78718
Ar 14.61858 14.49023 22.81319
Ar 11.45926 10.92788 5.90692
Ar 11.37221 14.62392 8.52032
Ar 14.13791 11.46329 8.40983
Ar 14.60338 14.32287 5.81338
Ar 11.51385 11.31372 11.56208
Ar 11.44678 14.72150 14.30461
Ar 14.36166 11.26838 14.18071
Ar 14.18391 14.59782 11.46011
Ar 11.69974 11.34569 17.05046
Ar 10.94647 14.50373 20.52992
Ar 14.20886 11.81889 20.23012
Ar 14.08368 14.48509 16.91348
Ar 11.33341 17.44498 0.08181
Ar 11.10198 20.35691 2.60256
Ar 14.26281 17.03495 2.86642
Ar 14.08126 19.55760 0.51618
Ar 11.22074 16.92960 5.10158
Ar 11.47008 20.29444 8.93313
Ar 15.00688 17.54395 8.67411
Ar 14.24527 20.31820 5.76301
Ar 11.47991 16.91246 11.46853
Ar 11.88021 20.05690 14.40176
Ar 13.71880 17.41823 14.40464
Ar 14.66392 20.08179 11.20915
Ar 11.05008 17.26693 17.14539
Ar 11.15574 19.95761 19.82351
Ar 14.46886 16.99029 19.67296
Ar 14.23341 19.83508 17.52635
Ar 16.97663 22.44724 22.80356
Ar 17.01494 2.90202 2.90270
Ar 19.70473 22.82186 2.79498
Ar 19.61461 2.64861 0.02393
Ar 16.72165 22.54554 5.57499
Ar 17.09184 2.97049 8.16384
Ar 20.03002 0.14120 8.93717
Ar 19.81700 2.58334 5.27231
Ar 17.22548 0.31456 11.21947
Ar 17.22378 3.05007 14.50776
Ar 19.83598 0.14020 14.24496
Ar 19.73004 2.90553 11.51286
Ar 16.84820 0.12380 17.65835
Ar 16.75173 3.02494 20.18360
Ar 19.99011 0.07939 19.91858
Ar 20.33572 2.58649 17.08599
Ar 16.59989 5.81532 0.10617
Ar 16.70019 8.33329 2.95810
Ar 19.81357 5.37941 2.17690
Ar 20.06424 9.03874 22.66382
Ar 17.22018 5.78813 5.67043
Ar 17.12950 8.56189 8.31499
Ar 20.41962 6.20694 8.66682
Ar 20.41564 8.32154 5.59490
Ar 17.38344 5.37642 11.04307
Ar 17.20018 8.00980 14.67356
Ar 20.15875 5.74108 14.45420
Ar 19.70234 8.29771 11.65432
Ar 17.32305 5.66942 17.12732
Ar 16.96466 8.91076 19.63326
Ar 19.74495 5.51936 19.59108
Ar 19.64115 8.30068 17.38414
Ar 17.52528 11.49211 22.42420
Ar 16.95149 14.20574 2.79068
Ar 19.85753 11.52661 2.35927
Ar 19.79596 14.30678 0.18879
Ar 17.19860 11.40570 5.67049
Ar 16.94182 14.27488 8.54324
Ar 19.78614 11.73579 8.90576
Ar 19.87914 14.42936 6.05035
Ar 17.18556 11.43879 11.56454
Ar 16.68635 13.89581 14.42404
Ar 20.04046 11.75222 14.15810
Ar 20.22273 14.54741 11.88863
Ar 16.92090 11.35798 17.18738
Ar 17.14419 14.06859 19.82142
Ar 19.71808 11.98549 19.93861
Ar 19.94891 14.09644 17.12969
Ar 17.32926 17.03823 0.00925
Ar 17.67127 20.16385 2.92166
Ar 19.85772 17.10388 2.69047
Ar 20.05706 19.80443 22.64672
Ar 17.04110 16.84649 5.74997
Ar 17.81978 19.80373 8.13152
Ar 20.23343 17.05555 9.10365
Ar 20.07830 20.19343 5.50114
Ar 16.72058 17.02967 11.62842
Ar 16.86780 19.55143 14.09609
Ar 19.81884 17.03119 14.26885
Ar 20.57658 19.94744 11.28811
Ar 16.80148 17.26991 16.68403
Ar 17.45300 19.91836 19.60779
Ar 19.96645 17.04724 20.24763
Ar 19.57649 19.99445 17.04828
256
frame 5
Ar 22.80524 0.33508 0.24973
Ar 0.24666 3.39410 2.46943
Ar 2.64066 22.34212 2.83379
Ar 3.17279 2.81676 0.22271
Ar 22.23569 0.05387 5.40351
Ar 0.48525 3.16171 8.80607
Ar 2.83128 0.15737 8.78761
Ar 2.72774 2.65809 5.66581
Ar 22.68684 22.66942 11.35556
Ar 22.56389 3.02776 13.75620
Ar 3.13776 22.59290 14.09255
Ar 2.49496 2.78720 11.45183
Ar 0.08279 22.64014 17.18694
Ar 0.63409 2.94506 19.79611
Ar 3.15797 22.79196 20.18445
Ar 2.94574 2.65016 16.55163
Ar 22.71884 5.90956 22.65376
Ar 0.10641 8.87275 2.66230
Ar 3.14946 6.07381 3.22952
Ar 3.03532 8.85439 0.43418
Ar 0.06384 5.59897 5.84791
Ar 0.14602 8.46445 8.32332
Ar 3.00828 5.84770 8.07019
Ar 2.23577 8.50025 5.65412
Ar 22.80095 5.94035 11.77900
Ar 0.06308 8.79392 13.92064
Ar 2.50841 5.78023 14.43702
Ar 3.03750 8.65223 11.64922
Ar 0.23219 5.10803 16.91589
Ar 0.14645 8.72755 19.45541
Ar 3.16853 5.63356 19.87464
Ar 2.97816 8.76553 16.64453
Ar 0.31662 11.41278 22.54687
Ar 22.73335 13.52056 2.66240
Ar 2.90162 11.27822 2.85193
Ar 2.75829 14.25713 0.33982
Ar 22.78585 11.32480 5.89755
Ar 0.48383 14.31493 8.67487
Ar 2.52444 11.57985 8.62163
Ar 3.29045 14.19860 5.35579
Ar 0.17372 11.58203 11.22317
Ar 22.50844 14.36438 14.29594
Ar 3.39925 11.12616 14.04542
Ar 2.92528 13.80544 11.27882
Ar 0.53272 11.38265 16.88808
Ar 22.41455 14.39581 20.18341
Ar 2.94061 11.28432 20.07156
Ar 2.96400 14.03529 17.37341
Ar 22.20957 16.69866 22.82024
Ar 22.77752 19.62798 2.85807
Ar 3.19571 17.22382 2.88607
Ar 3.16215 20.07604 22.48017
Ar 22.72764 17.42925 5.39592
Ar 0.01736 19.84693 8.24729
Ar 2.50843 17.14626 8.65299
Ar 2.95924 19.49268 5.61820
Ar 22.79249 17.19742 11.64188
Ar 0.17824 20.30972 14.64630
Ar 2.48288 16.93262 14.18617
Ar 2.16099 19.68784 11.98494
Ar 22.46496 16.40168 16.97358
Ar 0.47169 19.94155 20.11308
Ar 2.75805 17.03228 20.40550
Ar 3.09498 19.91712 17.42817
Ar 6.01712 22.74668 0.02891
Ar 5.79010 2.61427 3.25622
Ar 8.49359 22.64514 2.33323
Ar 8.14319 3.31611 22.48875
Ar 5.83592 22.77148 5.78143
Ar 5.86556 2.57493 8.50329
Ar 8.58031 0.04915 8.56990
Ar 8.46362 3.01902 6.10507
Ar 5.83855 22.56232 11.53132
Ar 5.69784 2.91579 14.68974
Ar 8.49631 22.76142 14.05340
Ar 8.47208 2.64997 11.93345
Ar 5.79688 22.76201 17.66000
Ar 5.31915 3.03659 20.25733
Ar 8.74752 22.73331 19.94502
Ar 8.56816 3.08633 16.42384
Ar 5.50765 5.78079 22.67478
Ar 5.44843 8.54447 2.80369
Ar 8.77073 6.17973 2.84815
Ar 7.96634 8.46764 22.61817
Ar 5.90341 6.29387 5.77711
Ar 6.30826 8.89278 8.74841
Ar 8.29736 5.75549 8.22257
Ar 8.78127 8.62525 6.05063
Ar 5.78355 5.06939 11.65971
Ar 5.96564 8.98518 14.29506
Ar 8.30465 5.66000 14.12574
Ar 8.34331 8.29790 12.06350
Ar 5.52791 5.45984 17.05575
Ar 5.64762 9.01571 20.25725
Ar 8.84461 5.67915 20.08924
Ar 8.31635 8.10097 17.76693
Ar 5.59495 11.74195 22.79341
Ar 5.72566 14.20809 2.50015
Ar 8.56992 11.55629 3.17143
Ar 8.69753 14.61093 0.27363
Ar 5.70752 10.74784 5.56228
Ar 6.23263 14.31470 8.86463
Ar 8.63201 11.27521 9.32058
Ar 8.66122 14.73016 5.92482
Ar 5.68621 10.89032 11.40028
Ar 5.30189 13.97988 14.44356
Ar 8.85189 11.63429 14.29048
Ar 8.58024 14.41372 11.55441
Ar 5.86457 11.40372 16.70488
Ar 6.04600 14.03069 20.21267
Ar 8.89736 11.18731 20.21449
Ar 8.83657 14.03922 16.98772
Ar 5.73687 16.45471 22.68435
Ar 5.74399 19.81500 2.33258
Ar 8.36701 17.62491 3.24082
Ar 8.48473 19.67652 22.77072
Ar 5.71383 16.88808 5.62640
Ar 5.79366 20.17293 7.92117
Ar 8.85694 17.20653 8.96107
Ar 8.69399 20.08713 6.17310
Ar 4.75766 17.55101 11.37606
Ar 5.09655 19.18997 14.42209
Ar 8.23167 17.41739 14.32269
Ar 8.50984 20.23497 11.47743
Ar 5.87370 17.24604 17.28265
Ar 5.92193 20.10253 19.74348
Ar 8.43178 17.07889 19.86988
Ar 8.14548 19.83001 17.15176
Ar 11.46578 0.49487 22.62156
Ar 11.24883 2.63241 2.71797
Ar 14.06370 22.24686 2.91283
Ar 14.43575 3.13179 22.58640
Ar 11.31207 0.58741 5.70258
Ar 11.45252 2.79488 8.88479
Ar 14.55083 0.71224 8.73290
Ar 14.39236 2.47141 5.53640
Ar 11.18965 22.81967 11.12773
Ar 11.72937 2.56135 14.32531
Ar 14.00914 0.04440 14.77855
Ar 14.00052 2.94624 11.44448
Ar 11.39942 0.09833 16.98553
Ar 11.31751 2.69947 19.67105
Ar 13.84060 0.29182 19.74341
Ar 14.47422 3.05362 16.84782
Ar 11.72324 5.39155 0.17363
Ar 11.64403 8.47678 2.57959
Ar 14.07839 6.21069 2.74804
Ar 13.87160 8.82014 22.67710
Ar 11.41600 5.34484 5.02056
Ar 11.31047 8.09714 8.18569
Ar 13.89362 5.37842 8.80410
Ar 14.44734 8.69810 5.59935
Ar 10.97129 5.76900 11.56023
Ar 11.74909 8.50934 14.24291
Ar 14.35659 5.39128 13.99808
Ar 14.48901 8.09857 11.38591
Ar 11.68117 5.76186 17.25195
Ar 11.11897 8.47895 19.92593
Ar 14.42563 5.87892 19.94781
Ar 14.74835 8.66572 17.01099
Ar 11.22302 11.38934 22.71687
Ar 11.96134 14.36886 2.70464
Ar 14.05778 11.08660 2.77164
Ar 14.69748 14.54806 22.80195
Ar 11.48237 10.84614 5.93233
Ar 11.38061 14.69839 8.50672
Ar 14.11265 11.47537 8.38192
Ar 14.64941 14.31745 5.82720
Ar 11.54486 11.29184 11.59968
Ar 11.43162 14.80235 14.31990
Ar 14.36894 11.21118 14.15737
Ar 14.15793 14.64617 11.47110
Ar 11.77544 11.32772 17.03603
Ar 10.89187 14.55802 20.61440
Ar 14.18630 11.91674 20.28794
Ar 14.03018 14.53617 16.87313
Ar 11.29598 17.49914 0.10403
Ar 11.02811 20.42766 2.55481
Ar 14.28524 17.00362 2.89936
Ar 14.06926 19.48985 0.61247
Ar 11.22584 16.92131 4.98743
Ar 11.49634 20.31308 8.96940
Ar 15.15419 17.64653 8.66750
Ar 14.18129 20.33122 5.81497
Ar 11.48396 16.90237 11.47422
Ar 11.88979 20.18330 14.42894
Ar 13.69084 17.39257 14.44155
Ar 14.75096 20.13837 11.16004
Ar 10.95991 17.30450 17.15352
Ar 11.09206 19.95340 19.79024
Ar 14.51933 16.94295 19.62074
Ar 14.21579 19.82688 17.61430
Ar 16.93487 22.35291 22.78972
Ar 16.97151 2.91035 2.90403
Ar 19.67615 0.04110 2.75225
Ar 19.51783 2.56971 0.00323
Ar 16.69603 22.53095 5.54781
Ar 17.10920 3.00914 8.06001
Ar 20.04764 0.17879 9.00076
Ar 19.76836 2.54281 5.17539
Ar 17.23461 0.38834 11.18563
Ar 17.26457 3.09276 14.55662
Ar 19.80314 0.16813 14.23646
Ar 19.70965 2.90839 11.54070
Ar 16.78838 0.16671 17.77638
Ar 16.72478 3.05684 20.17390
Ar 19.99903 0.09607 19.91236
Ar 20.42050 2.52563 17.07526
Ar 16.49967 5.87636 0.13411
Ar 16.66266 8.31629 2.95757
Ar 19.76791 5.32956 2.02970
Ar 20.10861 9.12453 22.59916
Ar 17.24817 5.80514 5.65716
Ar 17.13757 8.56336 8.26011
Ar 20.35085 6.15620 8.72134
Ar 20.50354 8.27599 5.53919
Ar 17.41427 5.32151 10.94781
Ar 17.22902 7.90572 14.70264
Ar 20.20456 5.74482 14.50742
Ar 19.63207 8.24668 11.72329
Ar 17.32406 5.59845 17.15091
Ar 16.93525 8.97841 19.62808
Ar 19.71684 5.44811 19.54004
Ar 19.60430 8.27868 17.43192
Ar 17.53620 11.50922 22.37067
Ar 16.91885 14.18586 2.78268
Ar 19.82470 11.53993 2.27937
Ar 19.74061 14.31325 0.21785
Ar 17.22296 11.40619 5.65780
Ar 16.90827 14.27322 8.56527
Ar 19.74939 11.81760 8.99399
Ar 19.86486 14.46936 6.13637
Ar 17.19552 11.44252 11.60188
Ar 16.60533 13.83421 14.45835
Ar 20.04539 11.80354 14.14045
Ar 20.21674 14.60329 11.90160
Ar 16.89369 11.39742 17.17668
Ar 17.08540 14.10131 19.77343
Ar 19.76677 12.05639 19.89694
Ar 19.91805 14.05526 17.11266
Ar 17.36610 17.03137 0.00941
Ar 17.74539 20.14342 2.91824
Ar 19.82706 17.09700 2.67323
Ar 20.08036 19.78197 22.60917
Ar 17.05199 16.80744 5.73733
Ar 17.99292 19.77096 8.04694
Ar 20.29330 17.02100 9.22367
Ar 20.11856 20.22596 5.44942
Ar 16.67253 16.98767 11.71171
Ar 16.80980 19.49516 14.05028
Ar 19.77013 17.04232 14.29415
Ar 20.68684 19.93673 11.27432
Ar 16.72702 17.26894 16.59825
Ar 17.48809 19.88768 19.59033
Ar 19.93246 17.02624 20.26453
Ar 19.53070 20.00406 16.96384
256
frame 6
Ar 22.79672 0.40008 0.29196
Ar 0.29800 3.50472 2.41066
Ar 2.60590 22.24047 2.83552
Ar 3.22435 2.79953 0.29719
Ar 22.18850 0.08954 5.34603
Ar 0.50528 3.23963 8.78625
Ar 2.83233 0.17211 8.83088
Ar 2.70201 2.61492 5.65385
Ar 22.72444 22.69887 11.36940
Ar 22.51194 3.01730 13.68568
Ar 3.20032 22.54995 14.06474
Ar 2.50647 2.76979 11.54521
Ar 0.11480 22.62522 17.23665
Ar 0.77007 2.94088 19.77374
Ar 3.20635 22.80656 20.22447
Ar 2.87985 2.57898 16.50188
Ar 22.70948 5.97169 22.59082
Ar 0.10350 8.93481 2.61528
Ar 3.14085 6.04509 3.29917
Ar 2.97239 8.86952 0.33397
Ar 0.07834 5.52572 5.84757
Ar 0.33237 8.61465 8.33462
Ar 3.06014 5.87157 7.98903
Ar 2.15885 8.53064 5.61824
Ar 22.79501 6.00042 11.80280
Ar 0.07064 8.87059 13.87026
Ar 2.48954 5.80282 14.42602
Ar 3.03451 8.60104 11.66397
Ar 0.24485 5.00102 16.91032
Ar 0.17520 8.75047 19.35137
Ar 3.17146 5.69183 19.83935
Ar 3.02349 8.77678 16.56852
Ar 0.36698 11.40673 22.48249
Ar 22.72604 13.39067 2.64142
Ar 2.91366 11.32599 2.91491
Ar 2.71854 14.25429 0.39719
Ar 22.76305 11.32784 5.93199
Ar 0.45452 14.41027 8.66435
Ar 2.57845 11.46387 8.53792
Ar 3.36623 14.16563 5.28730
Ar 0.13544 11.57970 11.24112
Ar 22.57319 14.34398 14.34039
Ar 3.31542 11.08730 13.99272
Ar 3.00967 13.78558 11.33883
Ar 0.61967 11.39765 16.82394
Ar 22.36663 14.39311 20.20611
Ar 2.95624 11.27907 20.07845
Ar 2.98882 14.00469 17.44206
Ar 22.18053 16.65502 0.06042
Ar 22.76943 19.61729 2.77472
Ar 3.25665 17.22126 2.85852
Ar 3.24694 20.08518 22.44406
Ar 22.69632 17.41075 5.39459
Ar 0.02018 19.84027 8.17979
Ar 2.44811 17.17083 8.65341
Ar 2.98276 19.42159 5.60824
Ar 22.72442 17.07035 11.68930
Ar 0.15097 20.35748 14.76950
Ar 2.36348 16.79272 14.25200
Ar 2.10104 19.81247 12.01059
Ar 22.42368 16.32699 16.99790
Ar 0.53655 19.94134 20.13615
Ar 2.74140 16.99097 20.48806
Ar 3.12964 19.90741 17.48895
Ar 6.03115 22.74341 22.79845
Ar 5.80956 2.57380 3.33157
Ar 8.47741 22.65828 2.27070
Ar 8.07945 3.36493 22.46803
Ar 5.85965 0.00153 5.72899
Ar 5.86876 2.52470 8.51914
Ar 8.58079 0.07102 8.57809
Ar 8.46193 3.02571 6.13821
Ar 5.83475 22.52478 11.53598
Ar 5.69228 2.87664 14.62684
Ar 8.49847 22.71886 14.07625
Ar 8.47104 2.62611 12.00710
Ar 5.81279 0.02392 17.68763
Ar 5.29746 3.00412 20.26702
Ar 8.78177 22.72514 19.94788
Ar 8.66854 3.10812 16.36153
Ar 5.45402 5.82354 22.67269
Ar 5.59606 8.58687 2.87563
Ar 8.77426 6.28255 2.82264
Ar 7.91438 8.44429 22.65077
Ar 5.91789 6.42596 5.75605
Ar 6.37196 8.84193 8.73241
Ar 8.27612 5.76905 8.23868
Ar 8.72008 8.64321 6.01018
Ar 5.76193 4.94574 11.68477
Ar 5.98464 8.94892 14.45446
Ar 8.26231 5.59956 14.18940
Ar 8.41976 8.30924 12.01699
Ar 5.49454 5.45644 17.07049
Ar 5.57831 9.10210 20.24940
Ar 8.90566 5.63564 20.12830
Ar 8.22945 8.04755 17.82832
Ar 5.57914 11.76969 22.81212
Ar 5.74423 14.18476 2.49604
Ar 8.57955 11.58643 3.23324
Ar 8.68381 14.66607 0.42912
Ar 5.69397 10.62165 5.54492
Ar 6.31927 14.32375 8.91720
Ar 8.73158 11.30821 9.48440
Ar 8.65532 14.78876 5.97189
Ar 5.71674 10.92841 11.36906
Ar 5.27276 14.13850 14.36186
Ar 8.92006 11.66954 14.27594
Ar 8.60107 14.44116 11.61736
Ar 5.94945 11.31011 16.81633
Ar 6.12782 13.97016 20.19268
Ar 8.90039 11.18015 20.21584
Ar 8.88959 14.00723 16.98434
Ar 5.72480 16.40912 22.65231
Ar 5.72908 19.79920 2.23679
Ar 8.29692 17.72701 3.27096
Ar 8.44878 19.62146 22.72516
Ar 5.71778 16.85613 5.62905
Ar 5.73298 20.14087 7.91736
Ar 8.89153 17.25984 9.03661
Ar 8.81808 20.09781 6.20481
Ar 4.62841 17.57461 11.30524
Ar 4.99326 19.12573 14.47766
Ar 8.19039 17.45895 14.31818
Ar 8.51253 20.24452 11.47886
Ar 5.85514 17.18342 17.34295
Ar 5.93505 20.05264 19.84638
Ar 8.39181 17.08427 19.86589
Ar 8.15350 19.85402 17.10042
Ar 11.47349 0.58374 22.58137
Ar 11.21091 2.58216 2.66895
Ar 14.03684 22.19085 2.88668
Ar 14.36369 3.12168 22.62521
Ar 11.27642 0.68202 5.71939
Ar 11.41041 2.78752 8.92772
Ar 14.57720 0.80510 8.75970
Ar 14.40492 2.42939 5.48111
Ar 11.15756 0.08432 11.18366
Ar 11.73125 2.56343 14.31177
Ar 14.09652 0.02624 14.84511
Ar 13.96364 2.95153 11.48195
Ar 11.32483 0.10154 17.01206
Ar 11.27376 2.71942 19.59755
Ar 13.76490 0.33087 19.71284
Ar 14.50419 3.10613 16.83608
Ar 11.75197 5.33584 0.18077
Ar 11.53169 8.56211 2.54828
Ar 14.10600 6.14400 2.74343
Ar 13.82534 8.86505 22.59445
Ar 11.43297 5.27545 4.93559
Ar 11.39107 7.95216 8.21869
Ar 13.83647 5.33196 8.83127
Ar 14.45268 8.71690 5.62649
Ar 10.89409 5.76824 11.57950
Ar 11.81892 8.48747 14.24565
Ar 14.37249 5.35255 13.95403
Ar 14.54250 8.00572 11.37973
Ar 11.73980 5.77166 17.26948
Ar 11.12724 8.45168 19.94123
Ar 14.43570 5.94102 19.91952
Ar 14.73099 8.64281 16.97111
Ar 11.21184 11.39191 22.75259
Ar 12.06314 14.32968 2.63586
Ar 14.03196 11.05933 2.75704
Ar 14.76857 14.60857 22.78390
Ar 11.51182 10.78745 5.94215
Ar 11.40279 14.76290 8.48937
Ar 14.09278 11.48802 8.36087
Ar 14.66611 14.29541 5.83059
Ar 11.58294 11.27123 11.63913
Ar 11.39141 14.85393 14.33888
Ar 14.36346 11.13477 14.13138
Ar 14.12541 14.66302 11.48071
Ar 11.85500 11.30855 17.02279
Ar 10.87950 14.60660 20.66048
Ar 14.15588 12.01165 20.34135
Ar 13.96985 14.58265 16.84239
Ar 11.24662 17.53195 0.12739
Ar 10.96663 20.47194 2.51514
Ar 14.32943 16.96007 2.95900
Ar 14.08202 19.45010 0.68204
Ar 11.26388 16.93628 4.89302
Ar 11.53103 20.29283 8.97251
Ar 15.28365 17.74598 8.63967
Ar 14.07943 20.30213 5.89352
Ar 11.47814 16.92337 11.47534
Ar 11.84847 20.33971 14.45055
Ar 13.71021 17.34135 14.47871
Ar 14.83064 20.21695 11.11047
Ar 10.87126 17.34182 17.15883
Ar 11.02865 19.94709 19.75948
Ar 14.57068 16.88379 19.58506
Ar 14.19122 19.83743 17.69266
Ar 16.88876 22.25579 22.77051
Ar 16.91569 2.91854 2.89512
Ar 19.66884 0.10666 2.68385
Ar 19.41275 2.46677 22.78501
Ar 16.71646 22.54343 5.52175
Ar 17.14543 3.05429 7.95010
Ar 20.06767 0.21740 9.04226
Ar 19.71035 2.52998 5.09180
Ar 17.22821 0.45851 11.16308
Ar 17.31826 3.12876 14.59359
Ar 19.77060 0.19147 14.22453
Ar 19.71994 2.90169 11.57248
Ar 16.73739 0.21430 17.88444
Ar 16.73566 3.08414 20.12739
Ar 20.00996 0.10921 19.90983
Ar 20.50069 2.46827 17.06243
Ar 16.41996 5.95787 0.15790
Ar 16.67727 8.33197 2.94016
Ar 19.71833 5.30310 1.89587
Ar 20.17016 9.18573 22.51348
Ar 17.27880 5.82187 5.63862
Ar 17.14934 8.56563 8.20959
Ar 20.25950 6.07895 8.77893
Ar 20.58211 8.23557 5.47399
Ar 17.41248 5.28978 10.84780
Ar 17.26212 7.82287 14.68087
Ar 20.25079 5.74582 14.56707
Ar 19.55881 8.20252 11.79736
Ar 17.28694 5.49119 17.18757
Ar 16.91018 9.03454 19.67642
Ar 19.71674 5.35730 19.52446
Ar 19.59393 8.28230 17.46907
Ar 17.48970 11.52652 22.33705
Ar 16.89305 14.16156 2.78213
Ar 19.78507 11.53778 2.23570
Ar 19.67339 14.31590 0.23103
Ar 17.25014 11.40874 5.64272
Ar 16.88078 14.27004 8.60632
Ar 19.71956 11.90257 9.08336
Ar 19.85747 14.50838 6.22550
Ar 17.20009 11.44396 11.64039
Ar 16.54519 13.79806 14.48619
Ar 20.04168 11.83308 14.12635
Ar 20.16984 14.64146 11.85787
Ar 16.87971 11.46975 17.15002
Ar 16.99823 14.17423 19.71843
Ar 19.86533 12.08149 19.84741
Ar 19.86504 14.01633 17.07381
Ar 17.38946 17.03784 0.00841
Ar 17.77517 20.07889 2.89836
Ar 19.79532 17.08807 2.67576
Ar 20.10509 19.77251 22.57640
Ar 17.08469 16.78949 5.70748
Ar 18.16161 19.74151 7.98558
Ar 20.34007 16.97602 9.31917
Ar 20.17389 20.23719 5.38650
Ar 16.65705 16.92805 11.80626
Ar 16.75653 19.48544 14.00385
Ar 19.71550 17.07375 14.33684
Ar 20.76670 19.92250 11.27104
Ar 16.65629 17.23768 16.53584
Ar 17.49435 19.84593 19.61827
Ar 19.87725 17.00273 20.24495
Ar 19.51480 20.01766 16.83343
256
frame 7
Ar 22.78628 0.46359 0.32956
Ar 0.34642 3.61560 2.36405
Ar 2.57733 22.13908 2.83992
Ar 3.27205 2.77598 0.38430
Ar 22.18969 0.14675 5.29195
Ar 0.50171 3.32100 8.75000
Ar 2.83531 0.18019 8.87314
Ar 2.67603 2.56953 5.64012
Ar 22.79096 22.76299 11.39606
Ar 22.46662 2.98640 13.64153
Ar 3.26363 22.51435 14.04764
Ar 2.55055 2.74983 11.66286
Ar 0.15688 22.63431 17.32256
Ar 0.90790 2.92134 19.76318
Ar 3.24402 0.00740 20.25866
Ar 2.78744 2.49408 16.47362
Ar 22.70529 6.04557 22.51315
Ar 0.08845 8.99800 2.56215
Ar 3.12140 5.99095 3.35910
Ar 2.90909 8.86925 0.20726
Ar 0.09164 5.43584 5.84003
Ar 0.48854 8.76139 8.40988
Ar 3.12076 5.89272 7.91644
Ar 2.12733 8.57480 5.53680
Ar 22.78636 6.06259 11.79821
Ar 0.07330 8.96159 13.83413
Ar 2.49583 5.82698 14.39475
Ar 3.02215 8.51505 11.65397
Ar 0.24064 4.90846 16.91957
Ar 0.20401 8.76740 19.24956
Ar 3.14926 5.78277 19.79945
Ar 3.07262 8.76472 16.51602
Ar 0.40346 11.39960 22.41687
Ar 22.72340 13.27565 2.63158
Ar 2.93396 11.38256 2.98904
Ar 2.67218 14.25240 0.44904
Ar 22.72855 11.34988 5.95976
Ar 0.39024 14.49350 8.64926
Ar 2.66202 11.33375 8.43998
Ar 3.43085 14.12345 5.22505
Ar 0.08135 11.57244 11.26862
Ar 22.66480 14.28481 14.36407
Ar 3.19226 11.09460 13.94813
Ar 3.10684 13.78165 11.40886
Ar 0.69070 11.42186 16.75154
Ar 22.35034 14.38844 20.22070
Ar 2.96011 11.29618 20.07182
Ar 3.02217 13.98593 17.51512
Ar 22.19669 16.63471 0.14605
Ar 22.76141 19.62486 2.65860
Ar 3.31096 17.20333 2.81214
Ar 3.33712 20.08385 22.42759
Ar 22.66035 17.35958 5.41433
Ar 0.01895 19.84609 8.11234
Ar 2.39386 17.21354 8.63588
Ar 3.00227 19.36468 5.60256
Ar 22.68828 16.91913 11.75651
Ar 0.10179 20.37767 14.88849
Ar 2.24339 16.63842 14.33582
Ar 2.04570 19.96045 12.00630
Ar 22.39921 16.30096 17.06342
Ar 0.58285 19.94499 20.15628
Ar 2.72397 16.93814 20.56645
Ar 3.15828 19.90100 17.55149
Ar 6.01508 22.74741 22.70837
Ar 5.82948 2.54767 3.39290
Ar 8.45279 22.70657 2.23376
Ar 8.02446 3.37784 22.48692
Ar 5.88490 0.06002 5.66701
Ar 5.85513 2.47976 8.54974
Ar 8.58075 0.09337 8.58942
Ar 8.46819 3.02072 6.14623
Ar 5.81644 22.49877 11.52888
Ar 5.68911 2.81372 14.52548
Ar 8.50688 22.65925 14.13585
Ar 8.48089 2.61324 12.06075
Ar 5.83030 0.13210 17.69308
Ar 5.29462 2.94919 20.25207
Ar 8.80802 22.72418 19.95528
Ar 8.80144 3.09474 16.34793
Ar 5.39014 5.87656 22.68320
Ar 5.76760 8.62239 2.91238
Ar 8.75587 6.38238 2.78882
Ar 7.89307 8.42392 22.70630
Ar 5.91758 6.55481 5.72204
Ar 6.41597 8.75864 8.70281
Ar 8.27098 5.78298 8.29419
Ar 8.65345 8.66228 5.94185
Ar 5.72221 4.83251 11.69164
Ar 6.01839 8.85706 14.60922
Ar 8.21774 5.56448 14.25669
Ar 8.50999 8.34556 11.93822
Ar 5.46403 5.46390 17.08758
Ar 5.50489 9.17231 20.21607
Ar 8.97563 5.58554 20.16407
Ar 8.12613 8.01570 17.85779
Ar 5.56332 11.77031 0.01802
Ar 5.76717 14.16029 2.53166
Ar 8.59264 11.61651 3.29392
Ar 8.67068 14.71299 0.61828
Ar 5.66806 10.52256 5.55894
Ar 6.39351 14.33212 8.96268
Ar 8.85383 11.35641 9.64214
Ar 8.64385 14.83377 6.01887
Ar 5.75142 11.00487 11.34964
Ar 5.25389 14.31783 14.27427
Ar 8.98845 11.69545 14.25156
Ar 8.63199 14.46965 11.69912
Ar 6.03956 11.24296 16.97575
Ar 6.21814 13.90581 20.13588
Ar 8.87241 11.18806 20.19407
Ar 8.93959 13.98329 16.99705
Ar 5.69910 16.40901 22.61619
Ar 5.69800 19.80035 2.14712
Ar 8.22848 17.82182 3.28624
Ar 8.40016 19.57489 22.66395
Ar 5.71995 16.83383 5.64353
Ar 5.65813 20.08842 7.94819
Ar 8.90763 17.32907 9.10452
Ar 8.96587 20.10476 6.22243
Ar 4.53096 17.57634 11.22944
Ar 4.89460 19.08948 14.53384
Ar 8.16002 17.49007 14.30466
Ar 8.52724 20.23099 11.47232
Ar 5.81703 17.09018 17.41040
Ar 5.94523 19.98748 19.98361
Ar 8.34863 17.09420 19.87361
Ar 8.18158 19.90201 17.03576
Ar 11.47735 0.66155 22.53886
Ar 11.16985 2.52999 2.61230
Ar 14.02079 22.16686 2.85653
Ar 14.27828 3.07762 22.68389
Ar 11.23456 0.76041 5.74570
Ar 11.34056 2.78411 8.95559
Ar 14.58559 0.87247 8.77538
Ar 14.40735 2.40621 5.41862
Ar 11.13231 0.18790 11.27954
Ar 11.71234 2.58294 14.29140
Ar 14.24227 0.01356 14.90649
Ar 13.93470 2.94354 11.52929
Ar 11.22408 0.09903 17.05053
Ar 11.21402 2.76981 19.51917
Ar 13.69653 0.35591 19.69360
Ar 14.52078 3.15779 16.84477
Ar 11.75129 5.29724 0.17636
Ar 11.39000 8.65951 2.52416
Ar 14.12424 6.03999 2.75461
Ar 13.79391 8.90114 22.49733
Ar 11.45395 5.20999 4.87968
Ar 11.48534 7.79826 8.27080
Ar 13.79789 5.29387 8.84615
Ar 14.44879 8.72694 5.66944
Ar 10.82980 5.75426 11.59291
Ar 11.88615 8.45620 14.25076
Ar 14.38817 5.33393 13.92375
Ar 14.59962 7.91669 11.37225
Ar 11.79787 5.78173 17.28080
Ar 11.16331 8.42168 19.96361
Ar 14.43693 6.01164 19.88346
Ar 14.67548 8.60317 16.92714
Ar 11.21070 11.40279 22.81467
Ar 12.15563 14.26083 2.55069
Ar 14.01790 11.05045 2.74388
Ar 14.82612 14.67044 22.75952
Ar 11.54080 10.74987 5.93742
Ar 11.43971 14.81526 8.46825
Ar 14.08085 11.50142 8.35006
Ar 14.65270 14.25771 5.82307
Ar 11.63337 11.25249 11.68179
Ar 11.32087 14.87076 14.35812
Ar 14.34932 11.04230 14.10323
Ar 14.08409 14.64144 11.48800
Ar 11.93594 11.28904 17.01164
Ar 10.89992 14.64665 20.67736
Ar 14.11510 12.09856 20.38674
Ar 13.90323 14.61727 16.82682
Ar 11.19216 17.54048 0.15263
Ar 10.92708 20.47990 2.48511
Ar 14.40054 16.90796 3.04362
Ar 14.11879 19.43386 0.71870
Ar 11.32471 16.97116 4.81677
Ar 11.57195 20.24959 8.95725
Ar 15.39438 17.83594 8.59811
Ar 13.95396 20.24777 5.99043
Ar 11.46512 16.97831 11.47617
Ar 11.76840 20.48847 14.46290
Ar 13.75576 17.30044 14.50888
Ar 14.89944 20.31751 11.05938
Ar 10.79003 17.37535 17.15792
Ar 10.96906 19.93716 19.73383
Ar 14.61720 16.82054 19.56992
Ar 14.16050 19.86655 17.75828
Ar 16.83930 22.15769 22.74613
Ar 16.84816 2.92809 2.87118
Ar 19.67364 0.17035 2.58872
Ar 19.30031 2.34683 22.72038
Ar 16.77157 22.56703 5.49691
Ar 17.19993 3.10053 7.83773
Ar 20.09081 0.25492 9.05813
Ar 19.64451 2.55456 5.03146
Ar 17.20458 0.52230 11.15532
Ar 17.38502 3.15199 14.61069
Ar 19.73943 0.20770 14.20855
Ar 19.75532 2.89141 11.60316
Ar 16.70257 0.25959 17.97586
Ar 16.76779 3.10992 20.06344
Ar 20.02258 0.11607 19.91039
Ar 20.56940 2.41625 17.04759
Ar 16.36441 6.05088 0.16561
Ar 16.73742 8.37965 2.91012
Ar 19.66673 5.29969 1.77710
Ar 20.24534 9.22210 22.40644
Ar 17.31166 5.84083 5.61126
Ar 17.16543 8.56883 8.16688
Ar 20.17044 5.99313 8.82957
Ar 20.65075 8.20050 5.40525
Ar 17.37136 5.27941 10.74991
Ar 17.29329 7.75810 14.61996
Ar 20.29685 5.74376 14.63304
Ar 19.48662 8.16696 11.87133
Ar 17.21674 5.37100 17.23424
Ar 16.88523 9.08022 19.76456
Ar 19.74979 5.25133 19.54484
Ar 19.60345 8.30504 17.49684
Ar 17.39670 11.54631 22.31387
Ar 16.87646 14.13181 2.79135
Ar 19.73525 11.51350 2.23340
Ar 19.59733 14.31447 0.22356
Ar 17.27956 11.41389 5.62541
Ar 16.85866 14.26756 8.66601
Ar 19.70032 11.98833 9.16973
Ar 19.85968 14.54412 6.31651
Ar 17.19696 11.44224 11.67993
Ar 16.50799 13.79449 14.50068
Ar 20.03042 11.83997 14.11360
Ar 20.08911 14.64581 11.79191
Ar 16.87536 11.55802 17.11752
Ar 16.90962 14.26783 19.65829
Ar 19.97579 12.05555 19.80737
Ar 19.78726 13.98601 17.00752
Ar 17.39575 17.06489 0.00654
Ar 17.76340 19.98566 2.86139
Ar 19.76513 17.07479 2.70285
Ar 20.13100 19.77661 22.54952
Ar 17.13741 16.79312 5.65943
Ar 18.31779 19.71527 7.95974
Ar 20.35960 16.93052 9.36138
Ar 20.24659 20.22276 5.30171
Ar 16.67430 16.84844 11.89853
Ar 16.71175 19.53290 13.96719
Ar 19.66006 17.11767 14.39111
Ar 20.81683 19.90781 11.27921
Ar 16.59713 17.17737 16.50287
Ar 17.48221 19.79629 19.67554
Ar 19.80907 16.97512 20.19268
Ar 19.51612 20.03576 16.67494
256
frame 8
Ar 22.77519 0.52452 0.36132
Ar 0.38689 3.72481 2.33070
Ar 2.55800 22.04256 2.84696
Ar 3.31992 2.74571 0.47847
Ar 22.23559 0.22592 5.24143
Ar 0.48550 3.39839 8.71641
Ar 2.83937 0.18215 8.91387
Ar 2.65084 2.52206 5.62463
Ar 0.04652 0.03518 11.43148
Ar 22.44042 2.94140 13.63434
Ar 3.32624 22.49271 14.05052
Ar 2.61876 2.72852 11.78906
Ar 0.21205 22.66908 17.45042
Ar 1.04448 2.88590 19.76897
Ar 3.26535 0.03656 20.28312
Ar 2.68839 2.39753 16.45577
Ar 22.70604 6.13031 22.42175
Ar 0.06241 9.06311 2.50107
Ar 3.10135 5.91939 3.40601
Ar 2.85409 8.85581 0.07159
Ar 0.10320 5.33850 5.82267
Ar 0.59458 8.87308 8.54409
Ar 3.18611 5.91183 7.85363
Ar 2.13380 8.62707 5.41891
Ar 22.77328 6.12158 11.76763
Ar 0.06827 9.06014 13.81573
Ar 2.52235 5.84793 14.34960
Ar 3.00936 8.40431 11.62096
Ar 0.22593 4.84227 16.93784
Ar 0.23314 8.77792 19.15272
Ar 3.10832 5.89840 19.75950
Ar 3.11681 8.73017 16.49575
Ar 0.41850 11.39522 22.35438
Ar 22.72135 13.17895 2.63352
Ar 2.96503 11.42912 3.05985
Ar 2.62412 14.25162 0.49466
Ar 22.68133 11.39267 5.97973
Ar 0.29720 14.54741 8.63291
Ar 2.78733 11.22804 8.33909
Ar 3.47898 14.07804 5.17996
Ar 0.02195 11.56854 11.29677
Ar 22.74734 14.17126 14.36477
Ar 3.05640 11.14055 13.90881
Ar 3.20147 13.78900 11.47144
Ar 0.74191 11.45265 16.67488
Ar 22.37407 14.39422 20.23321
Ar 2.94239 11.34759 20.04643
Ar 3.06640 13.98340 17.58927
Ar 22.24825 16.63228 0.24137
Ar 22.75226 19.63804 2.52231
Ar 3.35615 17.16987 2.74922
Ar 3.41496 20.06987 22.42746
Ar 22.62220 17.28501 5.44312
Ar 0.01021 19.86829 8.04753
Ar 2.34372 17.27407 8.59256
Ar 3.01339 19.32252 5.59742
Ar 22.69770 16.76822 11.84262
Ar 0.03901 20.36277 14.98647
Ar 2.15514 16.50356 14.43475
Ar 1.99085 20.09753 11.97502
Ar 22.38699 16.31559 17.16006
Ar 0.60906 19.95236 20.17536
Ar 2.70260 16.87624 20.63702
Ar 3.18178 19.89971 17.61815
Ar 5.97699 22.75909 22.59064
Ar 5.84848 2.55340 3.42390
Ar 8.41744 22.78664 2.21905
Ar 7.97596 3.35243 22.55084
Ar 5.91218 0.09437 5.62013
Ar 5.82561 2.44278 8.59306
Ar 8.58202 0.11194 8.60486
Ar 8.47679 3.01156 6.13367
Ar 5.78925 22.48480 11.50864
Ar 5.68601 2.72593 14.41951
Ar 8.51785 22.58765 14.22631
Ar 8.50172 2.60876 12.09512
Ar 5.85063 0.24858 17.68283
Ar 5.30229 2.88996 20.21552
Ar 8.82060 22.73290 19.96823
Ar 8.94902 3.03820 16.38601
Ar 5.31634 5.93421 22.70384
Ar 5.94264 8.64011 2.88132
Ar 8.71715 6.46406 2.75413
Ar 7.89700 8.41416 22.76516
Ar 5.90019 6.66223 5.68482
Ar 6.43972 8.66951 8.67943
Ar 8.28195 5.78844 8.37883
Ar 8.61386 8.68368 5.85528
Ar 5.66709 4.74098 11.67260
Ar 6.06968 8.72514 14.73524
Ar 8.16677 5.57541 14.30876
Ar 8.59774 8.40346 11.84818
Ar 5.43745 5.47332 17.09842
Ar 5.45297 9.20921 20.16909
Ar 9.05241 5.54230 20.18810
Ar 8.01539 8.00082 17.86400
Ar 5.54691 11.74548 0.05445
Ar 5.79046 14.13974 2.60155
Ar 8.60883 11.64569 3.35267
Ar 8.67488 14.75371 0.81997
Ar 5.62037 10.47192 5.62381
Ar 6.45360 14.33953 9.00142
Ar 8.97824 11.41147 9.77865
Ar 8.63465 14.86713 6.06232
Ar 5.78300 11.10119 11.34378
Ar 5.24768 14.50638 14.19171
Ar 9.05386 11.70910 14.21964
Ar 8.67063 14.50136 11.79680
Ar 6.13155 11.20746 17.17211
Ar 6.31351 13.84137 20.05084
Ar 8.82388 11.20495 20.15575
Ar 8.98390 13.96701 17.02929
Ar 5.66511 16.44355 22.57808
Ar 5.65391 19.82440 2.07144
Ar 8.17601 17.90184 3.29301
Ar 8.34280 19.54192 22.59436
Ar 5.71748 16.82293 5.67078
Ar 5.58342 20.02740 8.00123
Ar 8.90123 17.40905 9.15793
Ar 9.12347 20.10931 6.23117
Ar 4.46777 17.56481 11.16987
Ar 4.79981 19.06905 14.58250
Ar 8.13853 17.50998 14.28196
Ar 8.55453 20.19919 11.45948
Ar 5.76335 16.97765 17.47782
Ar 5.95822 19.91798 20.12403
Ar 8.30802 17.10495 19.89428
Ar 8.21282 19.97048 16.96900
Ar 11.47307 0.72058 22.48940
Ar 11.12597 2.48073 2.55666
Ar 14.01665 22.17652 2.83354
Ar 14.20918 3.00220 22.74905
Ar 11.19103 0.81768 5.77995
Ar 11.24565 2.78849 8.96724
Ar 14.57606 0.91719 8.77361
Ar 14.39651 2.40132 5.35409
Ar 11.11638 0.28374 11.40269
Ar 11.68328 2.60961 14.26989
Ar 14.42559 0.00937 14.96726
Ar 13.91399 2.91786 11.57695
Ar 11.10828 0.09248 17.09119
Ar 11.14378 2.84557 19.43887
Ar 13.63480 0.36767 19.68623
Ar 14.51385 3.19803 16.87032
Ar 11.71297 5.28605 0.16134
Ar 11.24204 8.76229 2.50526
Ar 14.13467 5.92112 2.78535
Ar 13.77851 8.92737 22.39605
Ar 11.47116 5.14983 4.85472
Ar 11.57018 7.65707 8.32628
Ar 13.79095 5.25110 8.85033
Ar 14.44324 8.72400 5.71875
Ar 10.78439 5.72055 11.60092
Ar 11.94423 8.41074 14.25718
Ar 14.40479 5.33975 13.91575
Ar 14.65912 7.83692 11.36237
Ar 11.85200 5.79305 17.28292
Ar 11.21687 8.39303 19.98746
Ar 14.43135 6.08610 19.84373
Ar 14.60088 8.55114 16.88549
Ar 11.21127 11.42514 0.06902
Ar 12.23523 14.17173 2.45487
Ar 14.01805 11.05477 2.73249
Ar 14.86608 14.73193 22.73197
Ar 11.56125 10.73018 5.92048
Ar 11.48969 14.85669 8.44458
Ar 14.07834 11.51558 8.35232
Ar 14.61587 14.20953 5.80721
Ar 11.70533 11.23556 11.73100
Ar 11.22625 14.85966 14.37265
Ar 14.33878 10.94420 14.07487
Ar 14.03268 14.58365 11.49309
Ar 12.01519 11.27040 17.00347
Ar 10.93978 14.67701 20.67797
Ar 14.06196 12.17383 20.42045
Ar 13.83071 14.63189 16.83032
Ar 11.14232 17.52638 0.18129
Ar 10.90840 20.45325 2.46425
Ar 14.49882 16.85562 3.14179
Ar 14.17426 19.42584 0.72388
Ar 11.39312 17.01980 4.75532
Ar 11.61590 20.19813 8.93961
Ar 15.48667 17.91103 8.55239
Ar 13.81842 20.18411 6.09264
Ar 11.45247 17.06302 11.48391
Ar 11.66238 20.61687 14.46336
Ar 13.80477 17.28363 14.52035
Ar 14.95465 20.43697 11.00394
Ar 10.72143 17.40063 17.14795
Ar 10.91645 19.92231 19.71592
Ar 14.64338 16.77472 19.57645
Ar 14.12589 19.90970 17.81052
Ar 16.78756 22.06048 22.71718
Ar 16.77255 2.94038 2.82749
Ar 19.68339 0.20913 2.47942
Ar 19.18095 2.22750 22.63397
Ar 16.84917 22.58957 5.47329
Ar 17.26684 3.13867 7.72950
Ar 20.11762 0.28942 9.05004
Ar 19.57631 2.61535 4.99603
Ar 17.16739 0.57992 11.16387
Ar 17.46197 3.15791 14.60193
Ar 19.71043 0.21442 14.18798
Ar 19.79645 2.88792 11.62050
Ar 16.68919 0.29311 18.04464
Ar 16.80369 3.13722 20.00463
Ar 20.03711 0.11314 19.91153
Ar 20.61824 2.36941 17.03067
Ar 16.33205 6.14608 0.14689
Ar 16.82566 8.45119 2.87448
Ar 19.61509 5.31246 1.67038
Ar 20.32631 9.23900 22.28272
Ar 17.34611 5.86656 5.57044
Ar 17.18665 8.57295 8.13497
Ar 20.09886 5.90548 8.86431
Ar 20.70938 8.17029 5.33707
Ar 17.28802 5.28023 10.66558
Ar 17.31112 7.70426 14.54454
Ar 20.34228 5.73879 14.70389
Ar 19.42353 8.14124 11.93457
Ar 17.13418 5.27125 17.28937
Ar 16.85652 9.11497 19.87000
Ar 19.81288 5.13797 19.59122
Ar 19.62334 8.33825 17.51846
Ar 17.27391 11.57141 22.29922
Ar 16.87010 14.09535 2.81039
Ar 19.67255 11.46445 2.26600
Ar 19.52042 14.30943 0.19507
Ar 17.31054 11.42181 5.60628
Ar 16.83889 14.26870 8.74004
Ar 19.69444 12.07054 9.24800
Ar 19.87306 14.57423 6.40798
Ar 17.18425 11.43666 11.72001
Ar 16.48879 13.82578 14.49377
Ar 20.01391 11.82464 14.09924
Ar 19.97625 14.60363 11.73905
Ar 16.87518 11.63980 17.09310
Ar 16.84760 14.35665 19.59430
Ar 20.07070 11.97683 19.78074
Ar 19.68913 13.97040 16.91901
Ar 17.38611 17.11921 0.00466
Ar 17.71606 19.88346 2.81060
Ar 19.74054 17.05213 2.75435
Ar 20.15753 19.79203 22.52797
Ar 17.20408 16.81384 5.59585
Ar 18.46189 19.69446 7.97076
Ar 20.34937 16.90052 9.33276
Ar 20.33356 20.18619 5.19030
Ar 16.71940 16.75217 11.98180
Ar 16.67723 19.63001 13.94958
Ar 19.60956 17.16255 14.44716
Ar 20.84694 19.89600 11.29836
Ar 16.56116 17.09788 16.49905
Ar 17.45994 19.74346 19.74509
Ar 19.73847 16.94104 20.11664
Ar 19.52193 20.06010 16.50933
256
frame 9
Ar 22.76578 0.58254 0.38620
Ar 0.41316 3.83013 2.30777
Ar 2.55060 21.95585 2.85674
Ar 3.37175 2.70855 0.57392
Ar 22.31252 0.32164 5.19309
Ar 0.46387 3.46410 8.70136
Ar 2.84351 0.17844 8.95229
Ar 2.62822 2.47231 5.60750
Ar 0.11849 0.16160 11.46866
Ar 22.44544 2.89147 13.67325
Ar 3.38699 22.48723 14.08030
Ar 2.70282 2.70551 11.91554
Ar 0.28103 22.71544 17.61211
Ar 1.17656 2.84063 19.79327
Ar 3.26299 0.05809 20.29347
Ar 2.59832 2.29371 16.43870
Ar 22.71140 6.22362 22.31866
Ar 0.02722 9.13088 2.42981
Ar 3.08862 5.83474 3.43969
Ar 2.80902 8.82955 22.75870
Ar 0.11146 5.24416 5.78930
Ar 0.63748 8.92134 8.71287
Ar 3.24980 5.92922 7.80210
Ar 2.15935 8.68498 5.29507
Ar 22.75396 6.17362 11.71728
Ar 0.05202 9.15330 13.81674
Ar 2.56237 5.86030 14.29742
Ar 3.00245 8.28275 11.57187
Ar 0.21059 4.81148 16.96252
Ar 0.26312 8.78249 19.06268
Ar 3.05281 6.03219 19.72263
Ar 3.14743 8.68167 16.50905
Ar 0.40656 11.39830 22.30018
Ar 22.71383 13.10051 2.64590
Ar 3.00648 11.44881 3.11198
Ar 2.57936 14.25036 0.53378
Ar 22.62447 11.45106 5.99570
Ar 0.18412 14.56968 8.61668
Ar 2.97617 11.17811 8.23426
Ar 3.50505 14.04182 5.16997
Ar 22.78683 11.57628 11.31870
Ar 22.78795 13.98996 14.35180
Ar 2.92562 11.20906 13.86981
Ar 3.27919 13.80715 11.50990
Ar 0.77212 11.48513 16.60475
Ar 22.43377 14.41269 20.24973
Ar 2.90491 11.43368 20.00081
Ar 3.12133 14.00110 17.65970
Ar 22.32337 16.63890 0.33819
Ar 22.74156 19.64838 2.37396
Ar 3.39120 17.12397 2.67535
Ar 3.44867 20.04396 22.43226
Ar 22.58455 17.19349 5.47373
Ar 22.81404 19.91061 7.98643
Ar 2.29387 17.34351 8.52208
Ar 3.01307 19.29435 5.58624
Ar 22.73460 16.62873 11.92803
Ar 22.79719 20.32015 15.06199
Ar 2.12986 16.42135 14.55393
Ar 1.94128 20.19838 11.91990
Ar 22.38123 16.35534 17.26825
Ar 0.61564 19.96228 20.19668
Ar 2.67220 16.80925 20.69532
Ar 3.20175 19.90469 17.69140
Ar 5.93370 22.77851 22.46209
Ar 5.86504 2.60550 3.41319
Ar 8.37301 0.06147 2.21917
Ar 7.93217 3.29769 22.65268
Ar 5.94162 0.08548 5.60517
Ar 5.78368 2.41512 8.64474
Ar 8.58556 0.12311 8.62530
Ar 8.47868 3.00791 6.10768
Ar 5.76110 22.48098 11.47459
Ar 5.68101 2.61185 14.33394
Ar 8.52358 22.51458 14.33467
Ar 8.52896 2.61117 12.11420
Ar 5.87451 0.36466 17.65788
Ar 5.31718 2.84552 20.16445
Ar 8.81482 22.75270 19.98817
Ar 9.08742 2.95622 16.46246
Ar 5.23531 5.99114 22.73188
Ar 6.10091 8.66036 2.79421
Ar 8.66817 6.50314 2.72881
Ar 7.92500 8.42189 22.80127
Ar 5.86392 6.73253 5.65024
Ar 6.43956 8.59612 8.67622
Ar 8.31079 5.77334 8.48100
Ar 8.61960 8.70999 5.75741
Ar 5.60346 4.68198 11.62176
Ar 6.13982 8.57460 14.82939
Ar 8.11101 5.62004 14.34860
Ar 8.67667 8.47815 11.75810
Ar 5.41382 5.47750 17.09833
Ar 5.43059 9.20435 20.12179
Ar 9.12347 5.51649 20.20317
Ar 7.91009 7.99477 17.85827
Ar 5.52998 11.70166 0.09258
Ar 5.81163 14.12507 2.69241
Ar 8.62732 11.67405 3.40931
Ar 8.70477 14.79255 1.01869
Ar 5.54617 10.46739 5.72728
Ar 6.50027 14.34601 9.03636
Ar 9.08655 11.47362 9.88020
Ar 8.63429 14.89067 6.09928
Ar 5.80992 11.20421 11.34855
Ar 5.26288 14.70256 14.12502
Ar 9.11366 11.70836 14.18475
Ar 8.71005 14.53880 11.90148
Ar 6.22345 11.19669 17.38293
Ar 6.40639 13.78318 19.95055
Ar 8.76944 11.22160 20.10883
Ar 9.01998 13.95570 17.08315
Ar 5.63389 16.49786 22.54270
Ar 5.61258 19.87252 2.02688
Ar 8.14589 17.96381 3.29608
Ar 8.29201 19.52476 22.53520
Ar 5.70810 16.82372 5.70990
Ar 5.51576 19.96434 8.07143
Ar 8.87109 17.49087 9.18954
Ar 9.28327 20.11247 6.23158
Ar 4.43819 17.54627 11.13851
Ar 4.71063 19.05451 14.61895
Ar 8.12289 17.51988 14.25132
Ar 8.59213 20.15988 11.44585
Ar 5.69601 16.85419 17.53953
Ar 5.97157 19.85005 20.23233
Ar 8.27651 17.11024 19.92502
Ar 8.23763 20.05492 16.90788
Ar 11.45325 0.75298 22.42810
Ar 11.08052 2.44117 2.51326
Ar 14.02282 22.21744 2.82260
Ar 14.17000 2.90606 22.81564
Ar 11.15308 0.84935 5.81865
Ar 11.13186 2.80376 8.96586
Ar 14.55018 0.94452 8.74983
Ar 14.37094 2.41130 5.29346
Ar 11.11263 0.35705 11.54086
Ar 11.65550 2.63848 14.25141
Ar 14.62585 0.00913 15.02651
Ar 13.90280 2.87458 11.61690
Ar 10.98828 0.08124 17.13107
Ar 11.07796 2.92950 19.36077
Ar 13.57876 0.37016 19.68667
Ar 14.46943 3.21183 16.90581
Ar 11.64108 5.30321 0.13776
Ar 11.10281 8.87069 2.49248
Ar 14.14860 5.79908 2.82994
Ar 13.78170 8.94687 22.30198
Ar 11.47567 5.09449 4.86138
Ar 11.62382 7.55310 8.37549
Ar 13.83173 5.18036 8.84768
Ar 14.44208 8.70563 5.76674
Ar 10.76003 5.66398 11.60551
Ar 11.98447 8.34545 14.26263
Ar 14.42270 5.36767 13.93486
Ar 14.71833 7.77307 11.34873
Ar 11.89805 5.80719 17.27220
Ar 11.27473 8.36929 20.00531
Ar 14.42129 6.16004 19.80478
Ar 14.52312 8.48892 16.85112
Ar 11.20611 11.46111 0.14932
Ar 12.30089 14.07900 2.35580
Ar 14.03467 11.06254 2.72352
Ar 14.88781 14.79132 22.70607
Ar 11.56903 10.72732 5.89364
Ar 11.54976 14.89063 8.42033
Ar 14.08508 11.52994 8.36911
Ar 14.56391 14.15552 5.78686
Ar 11.80719 11.21975 11.78876
Ar 11.12403 14.83385 14.38030
Ar 14.34885 10.85258 14.05106
Ar 13.97208 14.49829 11.49729
Ar 12.08951 11.25384 16.99900
Ar 10.99048 14.69769 20.66947
Ar 13.99558 12.23634 20.43922
Ar 13.75256 14.62265 16.85285
Ar 11.10374 17.49409 0.21434
Ar 10.90164 20.40397 2.45084
Ar 14.61798 16.81038 3.23811
Ar 14.24142 19.41203 0.70407
Ar 11.45693 17.07687 4.70580
Ar 11.65811 20.14600 8.93543
Ar 15.56182 17.96826 8.50969
Ar 13.68267 20.12009 6.18467
Ar 11.44803 17.16951 11.50449
Ar 11.54781 20.72412 14.45072
Ar 13.83760 17.29031 14.50356
Ar 14.99434 20.56984 10.94135
Ar 10.66819 17.41412 17.12742
Ar 10.87242 19.90238 19.70788
Ar 14.62422 16.77749 19.60392
Ar 14.09001 19.96144 17.84972
Ar 16.73485 21.96679 22.68420
Ar 16.69562 2.95571 2.76088
Ar 19.69601 0.21201 2.37920
Ar 19.05348 2.12880 22.52731
Ar 16.94130 22.60718 5.45039
Ar 17.33678 3.16064 7.63523
Ar 20.14789 0.31992 9.02259
Ar 19.51492 2.70117 4.97474
Ar 17.12367 0.63482 11.18832
Ar 17.54361 3.14826 14.56879
Ar 19.68432 0.20997 14.16154
Ar 19.82412 2.89919 11.61144
Ar 16.69841 0.30591 18.08805
Ar 16.83035 3.16471 19.97245
Ar 20.05499 0.09570 19.90838
Ar 20.63950 2.32576 17.01128
Ar 16.31706 6.23855 0.10068
Ar 16.92868 8.53909 2.83852
Ar 19.56530 5.33378 1.57173
Ar 20.40455 9.23980 22.15029
Ar 17.38133 5.90403 5.51202
Ar 17.21395 8.57782 8.11595
Ar 20.05507 5.81923 8.87751
Ar 20.75834 8.14391 5.27154
Ar 17.16375 5.28142 10.60365
Ar 17.30010 7.65463 14.48286
Ar 20.38557 5.73227 14.77646
Ar 19.38331 8.12687 11.96936
Ar 17.06855 5.22384 17.34481
Ar 16.82302 9.13386 19.97269
Ar 19.90024 5.02370 19.65223
Ar 19.64630 8.37640 17.53683
Ar 17.13541 11.60705 22.29959
Ar 16.87407 14.05056 2.83661
Ar 19.59705 11.39332 2.32120
Ar 19.45048 14.30129 0.14908
Ar 17.34236 11.43222 5.58621
Ar 16.81798 14.27589 8.82305
Ar 19.70252 12.14011 9.30984
Ar 19.89645 14.59604 6.49687
Ar 17.16122 11.42677 11.75891
Ar 16.47993 13.88855 14.46131
Ar 19.99346 11.78545 14.08116
Ar 19.83684 14.52672 11.71657
Ar 16.87284 11.69815 17.08570
Ar 16.83923 14.40994 19.52726
Ar 20.14344 11.85789 19.75853
Ar 19.58122 13.97436 16.82175
Ar 17.36648 17.20371 0.00367
Ar 17.63793 19.78640 2.75130
Ar 19.72651 17.01417 2.82464
Ar 20.18345 19.81554 22.50981
Ar 17.28038 16.84659 5.52433
Ar 18.60118 19.68519 8.00697
Ar 20.32229 16.89111 9.24951
Ar 20.42628 20.13672 5.05812
Ar 16.78358 16.64846 12.05709
Ar 16.65250 19.75730 13.95212
Ar 19.56867 17.19608 14.49485
Ar 20.86708 19.88821 11.32694
Ar 16.55826 17.01000 16.52301
Ar 17.42964 19.69163 19.81674
Ar 19.67260 16.89842 20.02489
Ar 19.52249 20.09560 16.35441
256
frame 10
Ar 22.76124 0.63785 0.40298
Ar 0.41766 3.92735 2.28793
Ar 2.55609 21.88354 2.86951
Ar 3.42814 2.66477 0.66592
Ar 22.40533 0.42624 5.14504
Ar 0.44113 3.51243 8.71592
Ar 2.84641 0.16897 8.98720
Ar 2.61161 2.42053 5.58913
Ar 0.16771 0.31316 11.49934
Ar 22.48023 2.84699 13.75985
Ar 3.44318 22.48992 14.13528
Ar 2.79214 2.67827 12.03901
Ar 0.35740 22.75263 17.79520
Ar 1.29874 2.80093 19.83534
Ar 3.23146 0.05686 20.28447
Ar 2.52735 2.19325 16.41580
Ar 22.72147 6.32171 22.20650
Ar 22.80898 9.20075 2.34758
Ar 3.09114 5.74263 3.46340
Ar 2.77143 8.79317 22.62348
Ar 0.11417 5.16119 5.73440
Ar 0.63209 8.92059 8.89613
Ar 3.30296 5.94352 7.76563
Ar 2.19122 8.74359 5.18566
Ar 22.72684 6.21656 11.65418
Ar 0.02012 9.22482 13.83728
Ar 2.61019 5.85972 14.24399
Ar 3.00649 8.16171 11.51303
Ar 0.20496 4.81686 16.99644
Ar 0.29392 8.78227 18.98090
Ar 2.98526 6.17885 19.68957
Ar 3.16197 8.62942 16.55061
Ar 0.36808 11.41254 22.25828
Ar 22.69595 13.03839 2.66642
Ar 3.05621 11.43268 3.13052
Ar 2.54151 14.24447 0.56596
Ar 22.56276 11.51764 6.01360
Ar 0.06449 14.56430 8.60240
Ar 3.20890 11.17341 8.12933
Ar 3.50259 14.02725 5.21339
Ar 22.73033 11.60256 11.32884
Ar 22.78889 13.76768 14.32294
Ar 2.81556 11.28636 13.82559
Ar 3.32933 13.83828 11.51134
Ar 0.78338 11.50843 16.56533
Ar 22.51667 14.43508 20.27450
Ar 2.86221 11.53656 19.94134
Ar 3.18414 14.04402 17.71781
Ar 22.41215 16.64513 0.43128
Ar 22.73212 19.65463 2.21802
Ar 3.41654 17.07191 2.59781
Ar 3.40816 20.00815 22.42914
Ar 22.54990 17.08910 5.50395
Ar 22.77908 19.97577 7.92869
Ar 2.24447 17.40864 8.43471
Ar 3.00085 19.28040 5.56147
Ar 22.77653 16.50168 11.99540
Ar 22.74333 20.26270 15.11988
Ar 2.15835 16.38913 14.69835
Ar 1.90342 20.25199 11.84685
Ar 22.37809 16.41091 17.37257
Ar 0.60246 19.97261 20.22318
Ar 2.62781 16.74154 20.73665
Ar 3.22011 19.91605 17.77176
Ar 5.90357 22.80386 22.34251
Ar 5.87867 2.69947 3.36910
Ar 8.32097 0.16368 2.22740
Ar 7.89273 3.22663 22.77945
Ar 5.97281 0.03795 5.61849
Ar 5.73413 2.39651 8.69923
Ar 8.59051 0.12411 8.65117
Ar 8.46477 3.01717 6.07402
Ar 5.73793 22.48440 11.42748
Ar 5.67615 2.47687 14.27751
Ar 8.50907 22.45928 14.44135
Ar 8.55293 2.62274 12.12200
Ar 5.90266 0.47291 17.61521
Ar 5.33920 2.83184 20.10817
Ar 8.78732 22.78292 20.01613
Ar 9.18357 2.87819 16.55366
Ar 5.15187 6.04354 22.76539
Ar 6.20705 8.71714 2.69800
Ar 8.63014 6.47074 2.72114
Ar 7.98454 8.44975 22.78137
Ar 5.81685 6.76635 5.61349
Ar 6.41500 8.54865 8.69679
Ar 8.35784 5.73007 8.59315
Ar 8.66493 8.74006 5.65580
Ar 5.54281 4.66209 11.54224
Ar 6.21853 8.42900 14.89074
Ar 8.06009 5.67045 14.38257
Ar 8.74753 8.55899 11.67512
Ar 5.38978 5.47030 17.08720
Ar 5.42198 9.15998 20.09203
Ar 9.16687 5.52068 20.22009
Ar 7.82759 7.98742 17.85357
Ar 5.51289 11.64569 0.12917
Ar 5.83201 14.11508 2.78877
Ar 8.64673 11.70352 3.46367
Ar 8.76219 14.83259 1.20645
Ar 5.45977 10.49150 5.83668
Ar 6.53507 14.35202 9.07078
Ar 9.17098 11.54917 9.93993
Ar 8.64630 14.90607 6.12760
Ar 5.83514 11.30528 11.36111
Ar 5.30930 14.90759 14.08173
Ar 9.16564 11.69085 14.15201
Ar 8.73682 14.58323 11.99607
Ar 6.31123 11.20690 17.57458
Ar 6.48494 13.74622 19.85027
Ar 8.72864 11.22519 20.06323
Ar 9.04692 13.94591 17.15851
Ar 5.61635 16.56077 22.51496
Ar 5.59401 19.94256 2.03222
Ar 8.13705 18.00754 3.29844
Ar 8.27543 19.52339 22.51725
Ar 5.69162 16.83530 5.75893
Ar 5.45680 19.90211 8.15675
Ar 8.81978 17.56237 9.19272
Ar 9.44067 20.11510 6.22151
Ar 4.43593 17.52325 11.13415
Ar 4.63021 19.04031 14.64175
Ar 8.11065 17.52314 14.21527
Ar 8.63674 20.12753 11.44060
Ar 5.61758 16.72643 17.59313
Ar 5.96897 19.78835 20.26993
Ar 8.25970 17.10205 19.95874
Ar 8.25172 20.14423 16.86241
Ar 11.40883 0.75479 22.35608
Ar 11.03691 2.41714 2.48932
Ar 14.03637 22.28269 2.82180
Ar 14.15967 2.80461 0.05825
Ar 11.12803 0.85171 5.85796
Ar 11.00704 2.83126 8.95801
Ar 14.51029 0.95957 8.70249
Ar 14.33173 2.43226 5.24136
Ar 11.12406 0.39746 11.67822
Ar 11.63869 2.67179 14.24038
Ar 14.82899 0.01052 15.08033
Ar 13.90448 2.81909 11.64711
Ar 10.87903 0.05679 17.17321
Ar 11.04287 2.99530 19.29496
Ar 13.53138 0.36756 19.68704
Ar 14.38232 3.19012 16.94576
Ar 11.55002 5.34058 0.10987
Ar 10.97881 8.98041 2.49043
Ar 14.17527 5.67947 2.87740
Ar 13.80668 8.96647 22.22790
Ar 11.46130 5.04316 4.89956
Ar 11.63781 7.49693 8.41528
Ar 13.92245 5.06903 8.83798
Ar 14.44748 8.67200 5.80907
Ar 10.75474 5.58778 11.60971
Ar 11.99898 8.25784 14.26309
Ar 14.44003 5.40785 13.98007
Ar 14.77077 7.73452 11.33106
Ar 11.93058 5.82560 17.24504
Ar 11.32310 8.35243 20.00817
Ar 14.40878 6.22886 19.77067
Ar 14.45456 8.41835 16.82776
Ar 11.19041 11.51016 0.21377
Ar 12.35294 14.00409 2.26295
Ar 14.07105 11.06200 2.71829
Ar 14.89465 14.84786 22.68546
Ar 11.56676 10.74227 5.85951
Ar 11.61707 14.92070 8.39735
Ar 14.09956 11.54324 8.40033
Ar 14.50280 14.09755 5.76537
Ar 11.93410 11.20453 11.84773
Ar 11.03715 14.80599 14.38723
Ar 14.39660 10.77367 14.04193
Ar 13.90499 14.39558 11.50245
Ar 12.15580 11.23992 16.99848
Ar 11.04733 14.70958 20.65437
Ar 13.91653 12.28706 20.44043
Ar 13.67064 14.59381 16.89083
Ar 11.07955 17.44875 0.25123
Ar 10.89989 20.34612 2.44358
Ar 14.74379 16.77759 3.31693
Ar 14.31116 19.38531 0.66794
Ar 11.51027 17.13858 4.66537
Ar 11.68908 20.09663 8.96691
Ar 15.62296 18.00755 8.47378
Ar 13.55887 20.05981 6.24524
Ar 11.45467 17.28967 11.53928
Ar 11.44588 20.80491 14.42497
Ar 13.84826 17.31434 14.45979
Ar 15.01688 20.70780 10.87084
Ar 10.63022 17.41487 17.09638
Ar 10.83660 19.87874 19.71090
Ar 14.55136 16.83820 19.65001
Ar 14.05511 20.01792 17.87568
Ar 16.68355 21.88173 22.64779
Ar 16.62673 2.97241 2.67214
Ar 19.71033 0.17905 2.30517
Ar 18.91845 2.06173 22.41154
Ar 17.04279 22.62061 5.42730
Ar 17.39699 3.16415 7.56816
Ar 20.18088 0.34645 8.98044
Ar 19.47283 2.79937 4.94799
Ar 17.08076 0.69288 11.22692
Ar 17.62255 3.13107 14.52040
Ar 19.66233 0.19468 14.12601
Ar 19.83556 2.92906 11.57346
Ar 16.72862 0.29376 18.10932
Ar 16.83634 3.18697 19.98136
Ar 20.07895 0.05811 19.89486
Ar 20.63058 2.28305 16.98930
Ar 16.31221 6.32635 0.03400
Ar 17.03897 8.63747 2.80420
Ar 19.51937 5.35852 1.47848
Ar 20.47213 9.22008 22.01992
Ar 17.41620 5.95553 5.43507
Ar 17.24830 8.58310 8.11091
Ar 20.03837 5.73492 8.87058
Ar 20.79809 8.12041 5.20953
Ar 17.01393 5.27321 10.56423
Ar 17.24968 7.60502 14.45585
Ar 20.42279 5.72705 14.84581
Ar 19.37854 8.12519 11.96007
Ar 17.03924 5.24652 17.38171
Ar 16.78702 9.13086 20.05810
Ar 20.00705 4.91181 19.72047
Ar 19.66786 8.41697 17.55354
Ar 16.98997 11.65896 22.32345
Ar 16.88832 13.99588 2.86570
Ar 19.51260 11.30635 2.38736
Ar 19.39160 14.29149 0.09032
Ar 17.37416 11.44432 5.56707
Ar 16.79381 14.29021 8.91064
Ar 19.72259 12.18033 9.34022
Ar 19.92417 14.60480 6.57510
Ar 17.12897 11.41259 11.79277
Ar 16.47476 13.97056 14.40904
Ar 19.96717 11.71846 14.05954
Ar 19.68395 14.44882 11.73122
Ar 16.86061 11.72421 17.09441
Ar 16.88821 14.41773 19.45934
Ar 20.19933 11.72349 19.72774
Ar 19.47642 14.00275 16.72656
Ar 17.34497 17.31394 0.00307
Ar 17.53512 19.70189 2.69017
Ar 19.72801 16.95797 2.90285
Ar 20.20614 19.84451 22.49193
Ar 17.36705 16.88792 5.45999
Ar 18.73922 19.69768 8.05197
Ar 20.29152 16.89312 9.14786
Ar 20.51493 20.08439 4.91608
Ar 16.85496 16.54993 12.12351
Ar 16.63587 19.89609 13.96950
Ar 19.54112 17.20632 14.52571
Ar 20.88342 19.88409 11.36324
Ar 16.58704 16.92125 16.57225
Ar 17.39070 19.64346 19.88414
Ar 19.61498 16.84637 19.92357
Ar 19.50714 20.14916 16.22697
256
frame 11
Ar 22.76474 0.69079 0.41056
Ar 0.39292 4.01108 2.26025
Ar 2.57231 21.82949 2.88534
Ar 3.48501 2.61505 0.74996
Ar 22.49994 0.53199 5.09508
Ar 0.41966 3.54249 8.76250
Ar 2.84603 0.15306 9.01701
Ar 2.60778 2.36905 5.57064
Ar 0.19022 0.47270 11.51422
Ar 22.53045 2.81930 13.88915
Ar 3.49067 22.48244 14.20520
Ar 2.87422 2.64364 12.15764
Ar 0.42751 22.76487 17.98968
Ar 1.40296 2.79137 19.89287
Ar 3.17688 0.01843 20.25438
Ar 2.48051 2.11278 16.38456
Ar 22.73719 6.41854 22.08808
Ar 22.76221 9.26997 2.25633
Ar 3.11639 5.65014 3.48201
Ar 2.73534 8.75455 22.49139
Ar 0.10962 5.09226 5.66038
Ar 0.60362 8.90075 9.07581
Ar 3.33582 5.95195 7.75029
Ar 2.22092 8.79177 5.09968
Ar 22.69088 6.24857 11.58524
Ar 22.79351 9.26228 13.87476
Ar 2.66171 5.84362 14.19481
Ar 3.02825 8.04736 11.44897
Ar 0.21665 4.85114 17.04508
Ar 0.32333 8.77898 18.90924
Ar 2.90914 6.33148 19.65914
Ar 3.16504 8.58008 16.61148
Ar 0.31066 11.43981 22.22906
Ar 22.66606 12.99092 2.69268
Ar 3.11411 11.39140 3.10801
Ar 2.51251 14.22714 0.59042
Ar 22.49941 11.58652 6.03788
Ar 22.77997 14.53466 8.59468
Ar 3.41329 11.19974 8.07269
Ar 3.46702 14.03448 5.31328
Ar 22.67741 11.64909 11.32314
Ar 22.76810 13.56656 14.26142
Ar 2.73964 11.36284 13.77118
Ar 3.34988 13.88737 11.47416
Ar 0.78434 11.50268 16.59370
Ar 22.61014 14.45145 20.30954
Ar 2.82536 11.62980 19.88309
Ar 3.24807 14.11630 17.75110
Ar 22.50720 16.63956 0.51570
Ar 22.73174 19.66405 2.05925
Ar 3.43362 17.02250 2.52446
Ar 3.29804 19.96303 22.42104
Ar 22.52046 16.97584 5.53360
Ar 22.72820 20.06404 7.87335
Ar 2.19814 17.45768 8.34738
Ar 2.97903 19.28232 5.51658
Ar 22.81457 16.38422 12.04175
Ar 22.71734 20.19857 15.16300
Ar 2.20513 16.37947 14.86516
Ar 1.87843 20.26530 11.76204
Ar 22.37615 16.48003 17.46429
Ar 0.56668 19.97985 20.25584
Ar 2.56912 16.67765 20.75798
Ar 3.23766 19.93261 17.85628
Ar 5.89757 0.00568 22.24703
Ar 5.89104 2.82072 3.31219
Ar 8.26078 0.25528 2.24059
Ar 7.85754 3.15083 0.09487
Ar 6.00507 22.79276 5.64616
Ar 5.68207 2.38499 8.74974
Ar 8.59447 0.11280 8.68223
Ar 8.43042 3.04112 6.03580
Ar 5.72204 22.49189 11.37061
Ar 5.68026 2.33562 14.24731
Ar 8.45436 22.45373 14.51702
Ar 8.56345 2.64576 12.12067
Ar 5.93573 0.56613 17.55069
Ar 5.36617 2.85726 20.05624
Ar 8.73575 22.82073 20.05061
Ar 9.19943 2.83130 16.62423
Ar 5.07220 6.08834 22.80351
Ar 6.24024 8.82502 2.62912
Ar 8.61428 6.35954 2.72913
Ar 8.08435 8.49150 22.68842
Ar 5.77739 6.77785 5.56471
Ar 6.37093 8.52342 8.73771
Ar 8.41697 5.66132 8.71169
Ar 8.72880 8.76640 5.55805
Ar 5.49770 4.68392 11.44523
Ar 6.27529 8.32357 14.91347
Ar 8.03473 5.68908 14.40786
Ar 8.81388 8.63268 11.60409
Ar 5.36088 5.44642 17.06834
Ar 5.40524 9.08056 20.09737
Ar 9.16345 5.56301 20.24655
Ar 7.78708 7.96923 17.86522
Ar 5.49601 11.58298 0.16190
Ar 5.85284 14.10758 2.88092
Ar 8.66467 11.73907 3.51545
Ar 8.84366 14.87355 1.38197
Ar 5.41607 10.52011 5.89381
Ar 6.55918 14.35856 9.10620
Ar 9.23710 11.64560 9.95989
Ar 8.67106 14.91515 6.14606
Ar 5.86334 11.39856 11.37981
Ar 5.38870 15.11933 14.05861
Ar 9.20846 11.65446 14.12468
Ar 8.73151 14.63374 12.05633
Ar 6.38235 11.23013 17.69978
Ar 6.53628 13.75858 19.77331
Ar 8.72897 11.20214 20.03679
Ar 9.06779 13.93542 17.25129
Ar 5.61827 16.62621 22.49696
Ar 5.60002 20.03264 2.08401
Ar 8.14532 18.03329 3.30288
Ar 8.30687 19.53896 22.55689
Ar 5.67033 16.85600 5.81582
Ar 5.40521 19.84202 8.25500
Ar 8.75243 17.61156 9.16292
Ar 9.59254 20.11799 6.19876
Ar 4.45200 17.49682 11.14828
Ar 4.56193 19.02536 14.65215
Ar 8.10123 17.52593 14.17740
Ar 8.68547 20.11611 11.45386
Ar 5.53557 16.60508 17.63867
Ar 5.93674 19.73609 20.22464
Ar 8.26099 17.07477 19.98834
Ar 8.25187 20.21334 16.85333
Ar 11.33481 0.72989 22.28420
Ar 11.00073 2.41141 2.48442
Ar 14.05461 22.36368 2.82615
Ar 14.16753 2.70706 0.12062
Ar 11.11878 0.82468 5.89542
Ar 10.87975 2.87077 8.95016
Ar 14.45904 0.96676 8.63285
Ar 14.28289 2.46155 5.19950
Ar 11.15067 0.39791 11.79587
Ar 11.63646 2.71788 14.24569
Ar 15.02431 0.01858 15.12410
Ar 13.92284 2.75855 11.66974
Ar 10.80040 0.00148 17.22351
Ar 11.06908 3.02529 19.26526
Ar 13.49963 0.36257 19.67926
Ar 14.26727 3.13878 16.99015
Ar 11.45481 5.38915 0.08451
Ar 10.86903 9.07868 2.50460
Ar 14.21455 5.56706 2.92036
Ar 13.85257 8.99446 22.18538
Ar 11.42798 4.99629 4.96693
Ar 11.62557 7.47566 8.44845
Ar 14.03620 4.92746 8.81128
Ar 14.45819 8.62535 5.84420
Ar 10.76594 5.49982 11.61681
Ar 11.98469 8.15301 14.25320
Ar 14.45208 5.44619 14.04595
Ar 14.80430 7.73451 11.31207
Ar 11.94235 5.84745 17.19981
Ar 11.35138 8.34396 19.98896
Ar 14.39488 6.28645 19.74427
Ar 14.40518 8.34394 16.81732
Ar 11.15942 11.56617 0.24114
Ar 12.39502 13.96973 2.18954
Ar 14.12943 11.04386 2.71812
Ar 14.89288 14.90273 22.67080
Ar 11.56316 10.77705 5.82141
Ar 11.68950 14.94970 8.37679
Ar 14.11975 11.55376 8.44488
Ar 14.43570 14.03557 5.74417
Ar 12.06441 11.18912 11.89094
Ar 10.99137 14.78514 14.40988
Ar 14.49320 10.70346 14.06319
Ar 13.83530 14.28540 11.51010
Ar 12.21145 11.22734 17.00152
Ar 11.10678 14.71486 20.63328
Ar 13.82747 12.32742 20.42286
Ar 13.58918 14.55530 16.94053
Ar 11.07276 17.39479 0.28997
Ar 10.90166 20.29129 2.44188
Ar 14.85608 16.76044 3.36419
Ar 14.36966 19.34264 0.62349
Ar 11.55266 17.20108 4.63069
Ar 11.69852 20.05254 9.05639
Ar 15.67472 18.03159 8.44561
Ar 13.45954 20.00504 6.25325
Ar 11.46917 17.41632 11.58582
Ar 11.37929 20.84712 14.38813
Ar 13.84399 17.34839 14.40002
Ar 15.02040 20.84013 10.79365
Ar 10.60566 17.40491 17.05627
Ar 10.80735 19.85368 19.72505
Ar 14.44429 16.93414 19.70951
Ar 14.02267 20.07700 17.88732
Ar 16.63770 21.81424 22.60871
Ar 16.57828 2.98605 2.56839
Ar 19.72306 0.11762 2.25852
Ar 18.78617 2.01999 22.31366
Ar 17.15036 22.63170 5.40303
Ar 17.43423 3.15285 7.54065
Ar 20.21605 0.37006 8.92711
Ar 19.46264 2.90134 4.89494
Ar 17.04492 0.76142 11.27722
Ar 17.69159 3.11555 14.46687
Ar 19.64648 0.17205 14.07551
Ar 19.84295 2.97770 11.51489
Ar 16.77864 0.25916 18.11861
Ar 16.80694 3.20732 20.01983
Ar 20.11116 22.82034 19.86798
Ar 20.59611 2.24027 16.96605
Ar 16.31314 6.40812 22.78051
Ar 17.14824 8.73687 2.77130
Ar 19.47920 5.38392 1.38909
Ar 20.52181 9.16729 21.90581
Ar 17.44953 6.01900 5.34283
Ar 17.29050 8.58843 8.12006
Ar 20.03925 5.65231 8.84886
Ar 20.82937 8.09954 5.15089
Ar 16.87367 5.24306 10.54422
Ar 17.16987 7.55827 14.46183
Ar 20.44837 5.72677 14.90639
Ar 19.40619 8.13470 11.91012
Ar 17.04215 5.32984 17.38794
Ar 16.75486 9.10613 20.11911
Ar 20.12845 4.80218 19.79208
Ar 19.68538 8.45858 17.56892
Ar 16.84135 11.72697 22.37411
Ar 16.91232 13.93106 2.89299
Ar 19.42940 11.21430 2.45509
Ar 19.34454 14.28256 0.02275
Ar 17.40480 11.45670 5.55265
Ar 16.76628 14.31106 8.99972
Ar 19.75096 12.17564 9.32475
Ar 19.94421 14.59138 6.62654
Ar 17.09081 11.39483 11.81528
Ar 16.46679 14.04784 14.35432
Ar 19.92908 11.61997 14.03759
Ar 19.53336 14.39424 11.78800
Ar 16.83199 11.71465 17.11134
Ar 16.96627 14.39972 19.39763
Ar 20.24347 11.60187 19.67246
Ar 19.38578 14.05750 16.63630
Ar 17.32950 17.43523 22.82258
Ar 17.41756 19.63391 2.63799
Ar 19.75118 16.88475 2.97192
Ar 20.22067 19.87755 22.46958
Ar 17.46706 16.93665 5.42683
Ar 18.87086 19.74620 8.09131
Ar 20.26554 16.89649 9.06252
Ar 20.59190 20.03653 4.77453
Ar 16.91826 16.47891 12.17073
Ar 16.62634 20.03065 13.99193
Ar 19.53046 17.18781 14.53677
Ar 20.89870 19.88279 11.40597
Ar 16.63506 16.83725 16.64220
Ar 17.34299 19.59986 19.94054
Ar 19.56723 16.78683 19.81763
Ar 19.46514 20.22233 16.14088
256
frame 12
Ar 22.77813 0.74134 0.40837
Ar 0.33630 4.07835 2.21351
Ar 2.59391 21.79805 2.90322
Ar 3.53363 2.55973 0.81971
Ar 22.58008 0.62993 5.04032
Ar 0.40087 3.55732 8.83439
Ar 2.83955 0.12988 9.03986
Ar 2.62911 2.32411 5.55454
Ar 0.18749 0.61913 11.50488
Ar 22.58263 2.81620 14.05309
Ar 3.52472 22.44100 14.27671
Ar 2.93979 2.60236 12.26770
Ar 0.47520 22.74945 18.17936
Ar 1.48385 2.83468 19.96411
Ar 3.12265 22.76010 20.21284
Ar 2.45588 2.06674 16.35058
Ar 22.76120 6.50307 21.96696
Ar 22.71342 9.33294 2.16095
Ar 3.16561 5.56116 3.49774
Ar 2.69257 8.72703 22.36769
Ar 0.09724 5.03492 5.57962
Ar 0.55909 8.87800 9.23628
Ar 3.34270 5.95244 7.76013
Ar 2.24129 8.81585 5.04267
Ar 22.64623 6.26621 11.51834
Ar 22.72699 9.26344 13.92388
Ar 2.71412 5.81143 14.15540
Ar 3.07640 7.94117 11.38351
Ar 0.24838 4.90492 17.11227
Ar 0.34378 8.77440 18.85154
Ar 2.83091 6.47625 19.62916
Ar 3.16419 8.53691 16.68093
Ar 0.24352 11.47920 22.20947
Ar 22.62531 12.95833 2.72241
Ar 3.18156 11.35043 3.04538
Ar 2.49359 14.19040 0.60587
Ar 22.43563 11.65338 6.07110
Ar 22.70281 14.48239 8.60177
Ar 3.50017 11.27235 8.15322
Ar 3.40016 14.05293 5.45466
Ar 22.62944 11.70826 11.29646
Ar 22.73108 13.42887 14.16619
Ar 2.70316 11.42874 13.70823
Ar 3.34591 13.95918 11.40583
Ar 0.78583 11.46250 16.70429
Ar 22.70181 14.45482 20.35238
Ar 2.79668 11.69245 19.84194
Ar 3.29279 14.20351 17.75132
Ar 22.60294 16.60876 0.58661
Ar 22.75167 19.69048 1.90463
Ar 3.44391 16.98497 2.46301
Ar 3.15460 19.90839 22.42487
Ar 22.49841 16.85870 5.56221
Ar 22.66521 20.17221 7.81970
Ar 2.15549 17.48466 8.27472
Ar 2.95123 19.30095 5.44900
Ar 0.02494 16.27513 12.07081
Ar 22.72611 20.13021 15.19408
Ar 2.24506 16.37337 15.04679
Ar 1.86314 20.25346 11.66968
Ar 22.37632 16.56274 17.53982
Ar 0.50203 19.97787 20.29273
Ar 2.50507 16.62431 20.75965
Ar 3.25082 19.95138 17.93651
Ar 5.91192 0.02496 22.18181
Ar 5.90620 2.96023 3.26307
Ar 8.19225 0.32204 2.26133
Ar 7.82712 3.08305 0.23293
Ar 6.03781 22.71418 5.67869
Ar 5.63238 2.37748 8.78850
Ar 8.59484 0.08762 8.71773
Ar 8.37696 3.07562 5.99475
Ar 5.71349 22.50017 11.30966
Ar 5.70895 2.20786 14.23879
Ar 8.35391 22.52162 14.53599
Ar 8.55618 2.67699 12.11043
Ar 5.97341 0.63943 17.46504
Ar 5.39378 2.91987 20.01548
Ar 8.65931 0.03822 20.08372
Ar 9.11969 2.82449 16.65166
Ar 5.00257 6.12204 0.02234
Ar 6.22413 8.96592 2.58597
Ar 8.60794 6.19557 2.74264
Ar 8.21718 8.53694 22.54501
Ar 5.76194 6.78114 5.49966
Ar 6.31390 8.51029 8.79290
Ar 8.47529 5.57797 8.83381
Ar 8.79159 8.77796 5.47128
Ar 5.47381 4.74780 11.34282
Ar 6.27629 8.29745 14.89575
Ar 8.05994 5.63719 14.41710
Ar 8.87916 8.69020 11.54671
Ar 5.32432 5.40356 17.04568
Ar 5.37301 8.97699 20.13828
Ar 9.11050 5.63034 20.27859
Ar 7.79789 7.93670 17.90111
Ar 5.47984 11.51897 0.18691
Ar 5.87063 14.10102 2.96830
Ar 8.67746 11.78813 3.56466
Ar 8.94060 14.91124 1.54820
Ar 5.49791 10.52175 5.81165
Ar 6.57267 14.36716 9.14090
Ar 9.29472 11.76589 9.94653
Ar 8.70671 14.91987 6.15426
Ar 5.89823 11.48055 11.40434
Ar 5.48979 15.32826 14.04547
Ar 9.24236 11.60023 14.10327
Ar 8.68382 14.68772 12.06792
Ar 6.41571 11.24335 17.72037
Ar 6.55613 13.84043 19.74794
Ar 8.79137 11.15090 20.04912
Ar 9.09043 13.92389 17.35283
Ar 5.63913 16.69165 22.48713
Ar 5.61795 20.13928 2.16042
Ar 8.16510 18.04158 3.31244
Ar 8.36618 19.57315 22.63503
Ar 5.64771 16.88364 5.87887
Ar 5.35853 19.78541 8.36282
Ar 8.67408 17.63420 9.10168
Ar 9.73575 20.12170 6.16422
Ar 4.47939 17.46879 11.17235
Ar 4.50930 19.01195 14.65289
Ar 8.09918 17.53914 14.14213
Ar 8.73575 20.13194 11.49017
Ar 5.47204 16.51848 17.67564
Ar 5.88819 19.69302 20.12763
Ar 8.28130 17.03061 20.01115
Ar 8.23469 20.23473 16.90128
Ar 11.23613 0.68729 22.22856
Ar 10.97761 2.42378 2.49368
Ar 14.07573 22.45269 2.83079
Ar 14.17436 2.61294 0.16759
Ar 11.12233 0.77361 5.93041
Ar 10.75990 2.91831 8.94512
Ar 14.39869 0.96990 8.54401
Ar 14.23039 2.49769 5.16712
Ar 11.18742 0.36200 11.87720
Ar 11.64537 2.78434 14.27638
Ar 15.19787 0.04982 15.15484
Ar 13.95825 2.69870 11.68800
Ar 10.76337 22.73346 17.28343
Ar 11.16274 3.02813 19.29002
Ar 13.49101 0.35658 19.66073
Ar 14.14484 3.06893 17.04080
Ar 11.36701 5.44302 0.06963
Ar 10.77193 9.15115 2.53428
Ar 14.25633 5.46983 2.95758
Ar 13.90799 9.03745 22.17973
Ar 11.38136 4.95592 5.05903
Ar 11.60443 7.47270 8.47837
Ar 14.12786 4.76937 8.74748
Ar 14.47151 8.56900 5.87227
Ar 10.79412 5.40983 11.63042
Ar 11.94357 8.04255 14.22806
Ar 14.45057 5.46679 14.12447
Ar 14.80791 7.78370 11.29638
Ar 11.92490 5.86700 17.13924
Ar 11.35800 8.34669 19.94731
Ar 14.37849 6.32497 19.72717
Ar 14.38187 8.27444 16.81850
Ar 11.10823 11.61859 0.21570
Ar 12.43553 13.98911 2.14955
Ar 14.20685 11.00717 2.72304
Ar 14.88891 14.95884 22.66016
Ar 11.56927 10.83390 5.78338
Ar 11.76537 14.97948 8.35915
Ar 14.14398 11.55976 8.50116
Ar 14.36447 13.96962 5.72208
Ar 12.17697 11.16703 11.90782
Ar 10.99950 14.77397 14.45870
Ar 14.63391 10.63279 14.12644
Ar 13.76894 14.17992 11.52081
Ar 12.25440 11.21220 17.00715
Ar 11.16406 14.71805 20.60655
Ar 13.73455 12.35687 20.38698
Ar 13.51400 14.51820 17.00070
Ar 11.08815 17.33663 0.32719
Ar 10.90926 20.24840 2.44551
Ar 14.93953 16.75794 3.37303
Ar 14.39702 19.28320 0.57569
Ar 11.58573 17.25840 4.59820
Ar 11.68848 20.01801 9.19996
Ar 15.72125 18.04475 8.42496
Ar 13.38639 19.95743 6.20986
Ar 11.48464 17.54105 11.64178
Ar 11.35587 20.84149 14.34750
Ar 13.83571 17.38675 14.33697
Ar 15.00393 20.95652 10.71243
Ar 10.59260 17.38812 17.00993
Ar 10.78302 19.82914 19.74969
Ar 14.32156 17.04377 19.77627
Ar 13.99356 20.13671 17.88265
Ar 16.60157 21.77571 22.56880
Ar 16.56843 2.98960 2.46417
Ar 19.73072 0.03607 2.23256
Ar 18.68017 1.98238 22.26588
Ar 17.26218 22.64201 5.37690
Ar 17.44442 3.13091 7.55268
Ar 20.25342 0.39326 8.86527
Ar 19.48784 3.00360 4.80689
Ar 17.02143 0.84579 11.33644
Ar 17.74552 3.10881 14.41501
Ar 19.63957 0.14893 14.00234
Ar 19.85889 3.04216 11.44585
Ar 16.84938 0.20859 18.13088
Ar 16.72219 3.24407 20.04913
Ar 20.14961 22.73560 19.83199
Ar 20.54376 2.19791 16.94508
Ar 16.31952 6.48058 22.70236
Ar 17.23346 8.81054 2.74018
Ar 19.44660 5.40867 1.30283
Ar 20.54601 9.07273 21.82018
Ar 17.48041 6.08957 5.24100
Ar 17.34084 8.59347 8.14272
Ar 20.04832 5.57318 8.81538
Ar 20.85301 8.08173 5.09489
Ar 16.78958 5.18152 10.55191
Ar 17.08835 7.52622 14.48297
Ar 20.45807 5.73418 14.95445
Ar 19.45136 8.15196 11.83579
Ar 17.06405 5.44812 17.36961
Ar 16.73676 9.06910 20.15369
Ar 20.25854 4.69266 19.86484
Ar 19.69706 8.49919 17.58172
Ar 16.69066 11.80269 22.44759
Ar 16.94391 13.85958 2.91461
Ar 19.37498 11.14380 2.51501
Ar 19.30882 14.27680 22.77302
Ar 17.43256 11.46731 5.54940
Ar 16.73689 14.33630 9.08778
Ar 19.78104 12.12832 9.26751
Ar 19.93972 14.54508 6.63130
Ar 17.05209 11.37513 11.81723
Ar 16.44686 14.08782 14.32275
Ar 19.87234 11.49033 14.02061
Ar 19.40854 14.35070 11.87656
Ar 16.78612 11.67025 17.12821
Ar 17.04345 14.37012 19.35340
Ar 20.27819 11.51624 19.57933
Ar 19.31619 14.13235 16.54889
Ar 17.32922 17.54174 22.80481
Ar 17.29833 19.58963 2.61345
Ar 19.80393 16.79670 3.01043
Ar 20.21940 19.91421 22.43662
Ar 17.57642 16.99420 5.44906
Ar 18.98715 19.84208 8.11590
Ar 20.24785 16.89768 9.01695
Ar 20.65295 19.99666 4.64175
Ar 16.95222 16.47582 12.17871
Ar 16.62588 20.14059 14.00405
Ar 19.54003 17.14770 14.53208
Ar 20.91362 19.88353 11.45442
Ar 16.68846 16.76438 16.72731
Ar 17.28809 19.56079 19.97526
Ar 19.53105 16.72628 19.71193
Ar 19.39531 20.30535 16.10406
256
frame 13
Ar 22.80113 0.78845 0.39675
Ar 0.25390 4.13080 2.14085
Ar 2.61326 21.79648 2.92019
Ar 3.56352 2.49834 0.86784
Ar 22.62725 0.71020 4.97749
Ar 0.38639 3.56016 8.92100
Ar 2.82419 0.09916 9.05354
Ar 2.69112 2.29437 5.54474
Ar 0.15989 0.74234 11.47143
Ar 22.62906 2.83636 14.23310
Ar 3.54180 22.35101 14.33965
Ar 2.98648 2.56044 12.36227
Ar 0.48046 22.72134 18.32992
Ar 1.54628 2.92944 20.04787
Ar 3.10322 22.64909 20.18588
Ar 2.44893 2.05863 16.32805
Ar 22.79875 6.55557 21.84897
Ar 22.66563 9.38129 2.06915
Ar 3.22747 5.47513 3.50760
Ar 2.63541 8.72818 22.26688
Ar 0.07812 4.98574 5.50796
Ar 0.49795 8.86347 9.36383
Ar 3.32657 5.94547 7.79207
Ar 2.24919 8.80979 5.01639
Ar 22.59494 6.26224 11.46452
Ar 22.65404 9.23463 13.97908
Ar 2.76499 5.76516 14.13048
Ar 3.15594 7.84268 11.31889
Ar 0.29745 4.97191 17.19710
Ar 0.33892 8.76821 18.81587
Ar 2.76212 6.58547 19.59745
Ar 3.16713 8.50334 16.74513
Ar 0.17103 11.52478 22.19518
Ar 22.57717 12.94318 2.75349
Ar 3.25433 11.32842 2.95090
Ar 2.48689 14.12878 0.61090
Ar 22.37255 11.71352 6.11381
Ar 22.66978 14.41137 8.62965
Ar 3.51070 11.37431 8.32726
Ar 3.30950 14.07325 5.61822
Ar 22.58886 11.76350 11.23763
Ar 22.67912 13.35685 14.08284
Ar 2.70371 11.47396 13.64455
Ar 3.32332 14.05147 11.31535
Ar 0.78919 11.41742 16.85754
Ar 22.77421 14.43956 20.39390
Ar 2.77737 11.71787 19.82619
Ar 3.27698 14.25502 17.72459
Ar 22.69450 16.54590 0.64277
Ar 22.79980 19.74387 1.76004
Ar 3.44815 16.96573 2.41938
Ar 3.01534 19.84460 22.45488
Ar 22.48585 16.74327 5.58853
Ar 22.60011 20.29408 7.76762
Ar 2.11573 17.49058 8.22404
Ar 2.92063 19.33204 5.36428
Ar 0.05752 16.17827 12.08439
Ar 22.76288 20.05813 15.21736
Ar 2.26708 16.36453 15.23024
Ar 1.85467 20.22845 11.57306
Ar 22.38134 16.65781 17.59906
Ar 0.40167 19.95718 20.32969
Ar 2.45502 16.59348 20.74508
Ar 3.24645 19.96638 17.99468
Ar 5.92917 0.03312 22.15001
Ar 5.92792 3.11398 3.24090
Ar 8.11905 0.34741 2.29941
Ar 7.80433 3.04129 0.34731
Ar 6.07035 22.63200 5.71209
Ar 5.58902 2.37141 8.80830
Ar 8.59043 0.04844 8.75633
Ar 8.30910 3.11372 5.95354
Ar 5.71190 22.50585 11.25204
Ar 5.77126 2.11460 14.24616
Ar 8.23000 22.63971 14.50708
Ar 8.53330 2.70760 12.08991
Ar 6.01269 0.69055 17.37063
Ar 5.41953 3.00980 19.98791
Ar 8.56237 0.07932 20.09801
Ar 8.97395 2.84288 16.65535
Ar 4.94755 6.14139 0.07012
Ar 6.19343 9.10847 2.55185
Ar 8.59871 6.00743 2.75493
Ar 8.36604 8.57830 22.38812
Ar 5.77663 6.78336 5.42471
Ar 6.24825 8.50203 8.85521
Ar 8.51336 5.49856 8.95474
Ar 8.84145 8.76487 5.40477
Ar 5.46722 4.84924 11.24546
Ar 6.22723 8.34305 14.84549
Ar 8.13061 5.52382 14.41179
Ar 8.94550 8.72997 11.50098
Ar 5.28148 5.34464 17.02092
Ar 5.33925 8.86855 20.19678
Ar 9.01819 5.69559 20.30817
Ar 7.85026 7.89565 17.94850
Ar 5.46540 11.46289 0.19413
Ar 5.87974 14.09554 3.05411
Ar 8.68168 11.85628 3.61214
Ar 9.03989 14.93874 1.70869
Ar 5.65875 10.51025 5.64384
Ar 6.57379 14.37961 9.16932
Ar 9.35084 11.90501 9.90736
Ar 8.75023 14.92186 6.15250
Ar 5.94064 11.55001 11.43544
Ar 5.58580 15.51328 14.03630
Ar 9.26898 11.53363 14.08670
Ar 8.60819 14.74216 12.04265
Ar 6.40874 11.23738 17.65336
Ar 6.54914 13.96493 19.78289
Ar 8.90187 11.08889 20.09143
Ar 9.12351 13.91134 17.45289
Ar 5.67455 16.75615 22.48229
Ar 5.64164 20.25483 2.24410
Ar 8.18905 18.03505 3.32970
Ar 8.42847 19.62411 22.72463
Ar 5.62675 16.91547 5.94626
Ar 5.31476 19.73480 8.47517
Ar 8.58933 17.63671 9.01850
Ar 9.86247 20.12616 6.12333
Ar 4.51366 17.44307 11.19939
Ar 4.47546 19.00229 14.64704
Ar 8.12061 17.58157 14.11424
Ar 8.78280 20.17113 11.54516
Ar 5.46937 16.52018 17.70037
Ar 5.84992 19.65685 20.02146
Ar 8.32094 16.98038 20.02811
Ar 8.19895 20.21076 16.99492
Ar 11.12799 0.63485 22.20263
Ar 10.96973 2.45145 2.51220
Ar 14.09854 22.54268 2.83244
Ar 14.15857 2.51797 0.18456
Ar 11.13346 0.70812 5.96306
Ar 10.66228 2.95952 8.94099
Ar 14.33089 0.97082 8.44052
Ar 14.18048 2.53867 5.14313
Ar 11.22721 0.30901 11.91336
Ar 11.65782 2.86924 14.33162
Ar 15.33333 0.12851 15.17303
Ar 14.00381 2.64464 11.70487
Ar 10.76090 22.62506 17.34571
Ar 11.29080 3.02467 19.35416
Ar 13.51012 0.34959 19.63855
Ar 14.03066 2.98950 17.09646
Ar 11.29467 5.49882 0.07111
Ar 10.69238 9.19123 2.56589
Ar 14.28738 5.39873 2.98994
Ar 13.95358 9.09822 22.20889
Ar 11.32935 4.92494 5.17067
Ar 11.58391 7.47930 8.50652
Ar 14.16454 4.60306 8.63076
Ar 14.48503 8.50654 5.89416
Ar 10.84338 5.32819 11.65425
Ar 11.88026 7.94006 14.18517
Ar 14.42641 5.45454 14.20646
Ar 14.78435 7.87502 11.28516
Ar 11.87192 5.87470 17.07105
Ar 11.35037 8.36276 19.88885
Ar 14.35571 6.33690 19.72042
Ar 14.38572 8.22006 16.82778
Ar 11.03855 11.66270 0.14239
Ar 12.48077 14.05288 2.14788
Ar 14.29427 10.95925 2.73219
Ar 14.88674 15.01979 22.64999
Ar 11.59292 10.91297 5.74937
Ar 11.84255 15.01097 8.34484
Ar 14.17121 11.55984 8.56664
Ar 14.29140 13.90081 5.69644
Ar 12.26420 11.12070 11.90527
Ar 11.04732 14.76850 14.51939
Ar 14.79487 10.55719 14.22802
Ar 13.71512 14.09793 11.53388
Ar 12.28281 11.18888 17.01375
Ar 11.21131 14.72698 20.57534
Ar 13.64917 12.37060 20.33519
Ar 13.45215 14.49216 17.07288
Ar 11.13026 17.28078 0.35805
Ar 10.92681 20.22448 2.45415
Ar 14.99436 16.76464 3.34955
Ar 14.37440 19.21074 0.52558
Ar 11.61031 17.30038 4.56406
Ar 11.67083 20.00321 9.36153
Ar 15.76410 18.05179 8.41226
Ar 13.33765 19.92078 6.13825
Ar 11.49279 17.64917 11.71007
Ar 11.36134 20.78721 14.31713
Ar 13.83312 17.42566 14.28206
Ar 14.97041 21.05114 10.63163
Ar 10.58985 17.36958 16.96204
Ar 10.76319 19.80579 19.78411
Ar 14.19136 17.15713 19.84565
Ar 13.96851 20.19349 17.85894
Ar 16.57576 21.77292 22.53205
Ar 16.61628 2.97708 2.37706
Ar 19.73226 22.76486 2.22129
Ar 18.61588 1.93374 22.27587
Ar 17.37665 22.65260 5.34888
Ar 17.43630 3.09973 7.58865
Ar 20.29347 0.42137 8.79782
Ar 19.54002 3.10497 4.69263
Ar 17.01469 0.94348 11.40012
Ar 17.78168 3.11557 14.36882
Ar 19.64487 0.13215 13.90110
Ar 19.88991 3.11633 11.37540
Ar 16.94125 0.14871 18.16038
Ar 16.57705 3.30870 20.04467
Ar 20.18632 22.63362 19.79654
Ar 20.47851 2.15666 16.93176
Ar 16.33316 6.53684 22.63427
Ar 17.25246 8.81088 2.71172
Ar 19.42367 5.43201 1.22011
Ar 20.53323 8.95261 21.76182
Ar 17.50831 6.16132 5.13632
Ar 17.39848 8.59797 8.17727
Ar 20.05971 5.50271 8.76875
Ar 20.86984 8.06789 5.04095
Ar 16.78430 5.09723 10.60328
Ar 17.03396 7.52528 14.49983
Ar 20.45173 5.75026 14.98950
Ar 19.50082 8.17473 11.74987
Ar 17.09678 5.57755 17.34205
Ar 16.74333 9.03391 20.15942
Ar 20.39041 4.58086 19.93688
Ar 19.70111 8.53427 17.58841
Ar 16.54075 11.87401 22.53607
Ar 16.97880 13.78998 2.92791
Ar 19.39602 11.14117 2.55795
Ar 19.28377 14.27509 22.69543
Ar 17.45538 11.47325 5.56513
Ar 16.70798 14.36288 9.17172
Ar 19.80226 12.05150 9.18522
Ar 19.89982 14.46458 6.58202
Ar 17.01831 11.35588 11.78770
Ar 16.40691 14.07513 14.32624
Ar 19.79471 11.33657 14.01420
Ar 19.33398 14.28821 11.97662
Ar 16.72828 11.59641 17.14115
Ar 17.09926 14.32458 19.33773
Ar 20.30635 11.47414 19.45175
Ar 19.27226 14.21079 16.46397
Ar 17.35517 17.60463 22.76635
Ar 17.18994 19.57921 2.63657
Ar 19.88628 16.69496 3.00564
Ar 20.19421 19.95395 22.38901
Ar 17.68377 17.06324 5.53044
Ar 19.08083 19.97924 8.12368
Ar 20.23512 16.89823 9.01437
Ar 20.69692 19.96465 4.52382
Ar 16.93785 16.57009 12.13870
Ar 16.63725 20.19983 13.98622
Ar 19.57102 17.10227 14.51688
Ar 20.92773 19.88568 11.50775
Ar 16.73600 16.71192 16.81956
Ar 17.22879 19.52773 19.97351
Ar 19.50950 16.67588 19.61264
Ar 19.31138 20.38338 16.12009
256
frame 14
Ar 0.00746 0.83034 0.37664
Ar 0.15608 4.17315 2.04190
Ar 2.62312 21.83506 2.93117
Ar 3.57013 2.43043 0.89261
Ar 22.63327 0.76953 4.90498
Ar 0.37841 3.55336 9.01195
Ar 2.79837 0.06179 9.05601
Ar 2.79921 2.28248 5.54411
Ar 0.10827 0.84310 11.42395
Ar 22.66271 2.87405 14.40031
Ar 3.54249 22.22613 14.39134
Ar 3.01706 2.52237 12.43575
Ar 0.43131 22.70428 18.40654
Ar 1.60016 3.05214 20.14218
Ar 3.14391 22.54016 20.20202
Ar 2.46468 2.07900 16.33135
Ar 0.02902 6.55409 21.74200
Ar 22.62217 9.40614 1.98905
Ar 3.28019 5.39257 3.50686
Ar 2.56112 8.77438 22.20846
Ar 0.05530 4.94172 5.45578
Ar 0.42509 8.86565 9.44964
Ar 3.29589 5.93309 7.83751
Ar 2.24714 8.77966 5.01445
Ar 22.54041 6.22701 11.43623
Ar 22.58613 9.18382 14.03694
Ar 2.81224 5.70935 14.12227
Ar 3.26076 7.75363 11.25413
Ar 0.35713 5.04950 17.29402
Ar 0.28794 8.75322 18.81348
Ar 2.71878 6.62401 19.56444
Ar 3.17977 8.48553 16.78799
Ar 0.09203 11.56534 22.18320
Ar 22.52813 12.94956 2.78451
Ar 3.31805 11.32659 2.84352
Ar 2.49623 14.04287 0.60437
Ar 22.31240 11.76090 6.16380
Ar 22.67602 14.33153 8.67407
Ar 3.50505 11.48120 8.52394
Ar 3.20291 14.09212 5.79064
Ar 22.55902 11.80101 11.14162
Ar 22.61151 13.33477 14.05972
Ar 2.73356 11.49547 13.58512
Ar 3.28577 14.15366 11.21057
Ar 0.79092 11.40534 16.99844
Ar 22.80857 14.40410 20.42007
Ar 2.77196 11.70825 19.84174
Ar 3.19656 14.24250 17.69034
Ar 22.77828 16.45970 0.68850
Ar 0.04677 19.82013 1.62617
Ar 3.44641 16.96537 2.39504
Ar 2.90529 19.77278 22.51369
Ar 22.48345 16.63286 5.61166
Ar 22.54836 20.42343 7.71629
Ar 2.07884 17.48114 8.19548
Ar 2.88903 19.36524 5.27550
Ar 0.08979 16.10154 12.08095
Ar 22.81621 19.98304 15.23674
Ar 2.26699 16.36238 15.39253
Ar 1.85158 20.19650 11.47476
Ar 22.39455 16.76328 17.64463
Ar 0.26670 19.90893 20.36319
Ar 2.44020 16.59834 20.71856
Ar 3.20400 19.96788 18.00641
Ar 5.92835 0.02888 22.15991
Ar 5.95548 3.27575 3.25706
Ar 8.04785 0.32121 2.36597
Ar 7.79465 3.04017 0.41232
Ar 6.10206 22.54865 5.74526
Ar 5.55408 2.36690 8.80597
Ar 8.58204 22.82087 8.79628
Ar 8.23236 3.14920 5.91726
Ar 5.71656 22.50626 11.20510
Ar 5.84002 2.08428 14.25435
Ar 8.12891 22.74771 14.45660
Ar 8.50017 2.72847 12.05477
Ar 6.04637 0.71600 17.29302
Ar 5.44400 3.11490 19.97257
Ar 8.45841 0.11800 20.07130
Ar 8.80292 2.86800 16.66325
Ar 4.90728 6.14603 0.12278
Ar 6.17401 9.21639 2.51118
Ar 8.58414 5.81187 2.76557
Ar 8.51565 8.60543 22.25239
Ar 5.81893 6.78628 5.35166
Ar 6.17678 8.49552 8.91869
Ar 8.50676 5.45053 9.06989
Ar 8.87489 8.72281 5.37123
Ar 5.47156 4.97717 11.15969
Ar 6.15908 8.42070 14.77323
Ar 8.21967 5.39456 14.39794
Ar 9.01379 8.75547 11.46237
Ar 5.23648 5.27563 16.99308
Ar 5.32809 8.77124 20.25339
Ar 8.90176 5.73060 20.33663
Ar 7.92341 7.86056 17.98188
Ar 5.45463 11.43018 0.16248
Ar 5.87585 14.09318 3.14063
Ar 8.67866 11.94034 3.65995
Ar 9.12865 14.95126 1.86527
Ar 5.82650 10.51652 5.48560
Ar 6.55859 14.39719 9.18258
Ar 9.41005 12.05308 9.84948
Ar 8.79869 14.92243 6.14165
Ar 5.98938 11.60781 11.47422
Ar 5.64279 15.64607 14.03338
Ar 9.29040 11.46141 14.07406
Ar 8.52847 14.79570 12.00374
Ar 6.37819 11.22292 17.54566
Ar 6.51777 14.08204 19.86599
Ar 9.02785 11.04531 20.12416
Ar 9.17014 13.89661 17.54571
Ar 5.71966 16.81986 22.48049
Ar 5.67317 20.36952 2.32701
Ar 8.20943 18.01938 3.35645
Ar 8.48121 19.68731 22.80916
Ar 5.60891 16.94859 6.01620
Ar 5.27271 19.69398 8.58615
Ar 8.50270 17.62956 8.92483
Ar 9.95628 20.13009 6.08358
Ar 4.55192 17.42585 11.22344
Ar 4.46208 18.99252 14.63785
Ar 8.19044 17.67480 14.09730
Ar 8.81844 20.22657 11.61097
Ar 5.53572 16.62561 17.70888
Ar 5.84676 19.62448 19.93912
Ar 8.38254 16.94008 20.04139
Ar 8.14503 20.16198 17.10639
Ar 11.02627 0.57585 22.21160
Ar 10.97463 2.48973 2.53678
Ar 14.12235 22.62722 2.82966
Ar 14.11268 2.42085 0.16828
Ar 11.14854 0.63948 5.99329
Ar 10.60782 2.96750 8.93234
Ar 14.25667 0.96594 8.32781
Ar 14.13762 2.58097 5.12693
Ar 11.26540 0.26115 11.90608
Ar 11.66451 2.96233 14.40226
Ar 15.42861 0.26074 15.17840
Ar 14.04473 2.60270 11.72222
Ar 10.78044 22.52236 17.40115
Ar 11.41225 3.03229 19.44065
Ar 13.55801 0.33919 19.62668
Ar 13.93791 2.90869 17.15063
Ar 11.24109 5.55496 0.08938
Ar 10.63959 9.20319 2.57653
Ar 14.30171 5.36021 3.01578
Ar 13.97528 9.17452 22.26479
Ar 11.27874 4.90588 5.29764
Ar 11.56728 7.49149 8.53348
Ar 14.15526 4.44159 8.47397
Ar 14.49732 8.44112 5.91123
Ar 10.91818 5.26250 11.68949
Ar 11.80032 7.85663 14.12449
Ar 14.38067 5.40496 14.28555
Ar 14.74570 7.98907 11.27653
Ar 11.78392 5.86393 17.00540
Ar 11.33987 8.38907 19.81936
Ar 14.32077 6.31995 19.72482
Ar 14.40895 8.18406 16.84383
Ar 10.96169 11.70369 0.04660
Ar 12.53147 14.13645 2.17861
Ar 14.38050 10.90969 2.74651
Ar 14.88702 15.08918 22.63612
Ar 11.63465 11.01018 5.72136
Ar 11.91889 15.04473 8.33424
Ar 14.20116 11.55327 8.63788
Ar 14.21947 13.83056 5.66479
Ar 12.32677 11.03019 11.89714
Ar 11.11084 14.76211 14.56763
Ar 14.95000 10.48019 14.34856
Ar 13.68182 14.05826 11.54834
Ar 12.29568 11.15304 17.01890
Ar 11.23989 14.75126 20.54186
Ar 13.58517 12.36056 20.27137
Ar 13.41010 14.48326 17.16032
Ar 11.19901 17.23420 0.37805
Ar 10.95872 20.22399 2.46751
Ar 15.03068 16.77287 3.30776
Ar 14.30160 19.13267 0.47192
Ar 11.62608 17.31381 4.52385
Ar 11.65465 20.02537 9.49646
Ar 15.80193 18.05721 8.40991
Ar 13.32413 19.90054 6.06001
Ar 11.48481 17.71858 11.80078
Ar 11.37979 20.68848 14.30895
Ar 13.84477 17.46273 14.24577
Ar 14.92765 21.12502 10.55680
Ar 10.59661 17.35520 16.91873
Ar 10.74873 19.78295 19.82817
Ar 14.05626 17.27076 19.91442
Ar 13.94806 20.24212 17.81325
Ar 16.55472 21.79995 22.50274
Ar 16.72067 2.94892 2.31492
Ar 19.72910 22.66163 2.22009
Ar 18.58402 1.88064 22.31462
Ar 17.49248 22.66420 5.31959
Ar 17.42226 3.05881 7.63099
Ar 20.33763 0.46493 8.72807
Ar 19.60875 3.20412 4.56559
Ar 17.02919 1.04306 11.46081
Ar 17.80081 3.13873 14.33070
Ar 19.66500 0.12233 13.77453
Ar 19.93802 3.19129 11.31329
Ar 17.04918 0.08478 18.21257
Ar 16.39479 3.38931 20.01874
Ar 20.20876 22.52117 19.77175
Ar 20.40045 2.11586 16.93138
Ar 16.35424 6.56951 22.58516
Ar 17.20451 8.73732 2.68046
Ar 19.41285 5.45335 1.14187
Ar 20.47069 8.83921 21.71886
Ar 17.53344 6.22670 5.03673
Ar 17.46185 8.60183 8.22144
Ar 20.07022 5.44856 8.70339
Ar 20.88085 8.05885 4.98875
Ar 16.82978 5.00690 10.69378
Ar 17.02147 7.56392 14.49369
Ar 20.43311 5.77442 15.01401
Ar 19.54637 8.20252 11.65807
Ar 17.13769 5.70045 17.32231
Ar 16.77811 9.01238 20.13398
Ar 20.51816 4.46419 20.00661
Ar 19.69520 8.55644 17.58327
Ar 16.39715 11.93101 22.63098
Ar 17.01193 13.73294 2.93240
Ar 19.49383 11.20671 2.58346
Ar 19.26839 14.27630 22.61582
Ar 17.47234 11.47081 5.60392
Ar 16.68189 14.38789 9.24866
Ar 19.80391 11.95409 9.08986
Ar 19.82911 14.36119 6.49170
Ar 16.98972 11.33846 11.72009
Ar 16.34634 14.02887 14.34841
Ar 19.69860 11.16939 14.02271
Ar 19.30481 14.20371 12.07665
Ar 16.66739 11.50236 17.15419
Ar 17.12280 14.25053 19.35672
Ar 20.33240 11.47169 19.30763
Ar 19.25755 14.26994 16.38660
Ar 17.41213 17.61398 22.71740
Ar 17.09839 19.60428 2.70723
Ar 19.98303 16.58122 2.96510
Ar 20.14093 19.99511 22.33029
Ar 17.78596 17.14492 5.64783
Ar 19.14359 20.13331 8.11750
Ar 20.22145 16.89888 9.04090
Ar 20.72584 19.93686 4.42339
Ar 16.88295 16.73722 12.06782
Ar 16.65490 20.20097 13.92794
Ar 19.62108 17.06990 14.49062
Ar 20.94004 19.88866 11.56474
Ar 16.76827 16.69011 16.90955
Ar 17.16676 19.50426 19.92369
Ar 19.50406 16.64602 19.52603
Ar 19.23091 20.44975 16.18698
256
frame 15
Ar 0.04177 0.86502 0.34898
Ar 0.05132 4.21030 1.92235
Ar 2.62034 21.92284 2.93090
Ar 3.55783 2.35842 0.90076
Ar 22.60764 0.81411 4.82467
Ar 0.37966 3.54024 9.09641
Ar 2.76250 0.02011 9.04606
Ar 2.94155 2.28131 5.55252
Ar 0.03715 0.92186 11.37625
Ar 22.67445 2.92624 14.53000
Ar 3.52763 22.10478 14.43372
Ar 3.03199 2.48696 12.48415
Ar 0.36067 22.71141 18.40926
Ar 1.65107 3.18039 20.24533
Ar 3.22405 22.45512 20.25732
Ar 2.51691 2.11296 16.36882
Ar 0.08841 6.49382 21.65658
Ar 22.58641 9.40057 1.92701
Ar 3.29710 5.32271 3.49432
Ar 2.47633 8.86904 22.19867
Ar 0.03339 4.90043 5.42492
Ar 0.35004 8.88132 9.49225
Ar 3.25810 5.91665 7.88740
Ar 2.23970 8.73543 5.02706
Ar 22.48705 6.15690 11.44077
Ar 22.53176 9.11650 14.09623
Ar 2.85427 5.65025 14.12970
Ar 3.37023 7.68396 11.18944
Ar 0.41797 5.13501 17.39328
Ar 0.18499 8.71962 18.84889
Ar 2.71693 6.57919 19.53613
Ar 3.20180 8.49026 16.79965
Ar 0.00289 11.58679 22.17462
Ar 22.49181 12.98375 2.81526
Ar 3.35443 11.33608 2.74809
Ar 2.52497 13.94033 0.58391
Ar 22.25954 11.78814 6.21571
Ar 22.70814 14.26011 8.72157
Ar 3.49538 11.58453 8.72467
Ar 3.08578 14.11040 5.96533
Ar 22.54321 11.82299 11.03500
Ar 22.52891 13.33608 14.10361
Ar 2.78071 11.49861 13.53021
Ar 3.23446 14.25275 11.09878
Ar 0.78719 11.44637 17.09277
Ar 22.80066 14.36252 20.41674
Ar 2.78660 11.66772 19.89546
Ar 3.10462 14.18307 17.67649
Ar 0.02933 16.36721 0.72777
Ar 0.11264 19.90739 1.50798
Ar 3.43897 16.97919 2.38724
Ar 2.84480 19.69503 22.58543
Ar 22.48950 16.52730 5.63145
Ar 22.52713 20.55526 7.66350
Ar 2.04600 17.46257 8.18630
Ar 2.85704 19.38909 5.19641
Ar 0.12210 16.05216 12.05863
Ar 0.05425 19.90587 15.25443
Ar 2.24241 16.39142 15.50224
Ar 1.85314 20.15956 11.37695
Ar 22.41800 16.87803 17.68089
Ar 0.11285 19.83254 20.38926
Ar 2.46636 16.63940 20.68214
Ar 3.11523 19.94655 17.96095
Ar 5.90397 0.01351 22.22196
Ar 5.98546 3.42753 3.30413
Ar 7.98617 0.25693 2.46032
Ar 7.80171 3.07242 0.41833
Ar 6.13233 22.46517 5.77875
Ar 5.52758 2.36664 8.78327
Ar 8.57169 22.75956 8.83537
Ar 8.15416 3.17749 5.89520
Ar 5.72567 22.50049 11.17459
Ar 5.85205 2.16151 14.24528
Ar 8.11328 22.77608 14.40007
Ar 8.46347 2.73375 11.99700
Ar 6.06150 0.70771 17.25911
Ar 5.46914 3.22508 19.96922
Ar 8.36307 0.15517 19.99286
Ar 8.63667 2.88843 16.69398
Ar 4.87826 6.13877 0.17900
Ar 6.18457 9.25269 2.44226
Ar 8.57052 5.62337 2.77756
Ar 8.65261 8.60275 22.17320
Ar 5.88089 6.78901 5.28911
Ar 6.10323 8.49032 8.97890
Ar 8.44615 5.45108 9.17749
Ar 8.89806 8.65343 5.38010
Ar 5.48659 5.11119 11.08820
Ar 6.09086 8.50659 14.68562
Ar 8.30996 5.28723 14.37449
Ar 9.08344 8.77065 11.42592
Ar 5.19335 5.20203 16.96004
Ar 5.35399 8.69117 20.29908
Ar 8.77594 5.70915 20.37365
Ar 7.99952 7.84893 17.97725
Ar 5.45094 11.43606 0.06718
Ar 5.85613 14.09729 3.22843
Ar 8.67733 12.02596 3.71000
Ar 9.19996 14.95206 2.01506
Ar 5.97183 10.56068 5.39241
Ar 6.52198 14.41971 9.17112
Ar 9.47594 12.20096 9.77824
Ar 8.84994 14.92278 6.12328
Ar 6.04352 11.65588 11.52141
Ar 5.65292 15.71511 14.04428
Ar 9.30834 11.38856 14.06536
Ar 8.46125 14.85073 11.97012
Ar 6.33646 11.20784 17.42616
Ar 6.46016 14.16309 19.97991
Ar 9.14168 11.05370 20.09635
Ar 9.22625 13.87849 17.63019
Ar 5.77077 16.88387 22.48226
Ar 5.71239 20.47239 2.40678
Ar 8.22019 18.00248 3.39340
Ar 8.51959 19.75808 0.05637
Ar 5.59416 16.98040 6.08719
Ar 5.23173 19.66815 8.68890
Ar 8.41823 17.62077 8.82866
Ar 9.99846 20.12970 6.05127
Ar 4.59249 17.42355 11.24058
Ar 4.47136 18.96907 14.62873
Ar 8.31125 17.81694 14.09268
Ar 8.83404 20.29454 11.67989
Ar 5.62894 16.78701 17.69963
Ar 5.88316 19.59638 19.89613
Ar 8.46849 16.92412 20.05272
Ar 8.07716 20.10201 17.21724
Ar 10.93646 0.50972 22.25130
Ar 10.98758 2.53377 2.56584
Ar 14.14695 22.70059 2.82294
Ar 14.04753 2.32572 0.12894
Ar 11.16616 0.57865 6.02002
Ar 10.60793 2.92565 8.91413
Ar 14.17709 0.94238 8.21229
Ar 14.10376 2.61975 5.11629
Ar 11.30044 0.22786 11.86718
Ar 11.65504 3.05023 14.47896
Ar 15.49922 0.42377 15.16774
Ar 14.06343 2.57942 11.74031
Ar 10.81309 22.43564 17.44390
Ar 11.49962 3.06109 19.55116
Ar 13.63237 0.32168 19.63892
Ar 13.87846 2.83507 17.19184
Ar 11.20545 5.61123 0.12031
Ar 10.61884 9.19739 2.54933
Ar 14.30291 5.35373 3.02978
Ar 13.97102 9.25782 22.33536
Ar 11.23388 4.90002 5.43677
Ar 11.55478 7.50675 8.55973
Ar 14.12094 4.30663 8.30306
Ar 14.50778 8.37501 5.92496
Ar 11.01802 5.21338 11.72953
Ar 11.71022 7.79886 14.04938
Ar 14.32943 5.33015 14.35961
Ar 14.70164 8.11057 11.26923
Ar 11.66798 5.83520 16.95137
Ar 11.33902 8.41580 19.74110
Ar 14.26700 6.28137 19.74026
Ar 14.43744 8.15820 16.87051
Ar 10.89591 11.75081 22.78722
Ar 12.58827 14.21844 2.23355
Ar 14.45421 10.86661 2.77134
Ar 14.88770 15.16888 22.61507
Ar 11.68847 11.11738 5.69872
Ar 11.99279 15.08117 8.32747
Ar 14.23408 11.54007 8.71096
Ar 14.15301 13.76089 5.62628
Ar 12.36986 10.89456 11.89153
Ar 11.17470 14.74877 14.58766
Ar 15.07952 10.41294 14.45146
Ar 13.66749 14.06246 11.56511
Ar 12.29306 11.10443 17.01935
Ar 11.24846 14.79483 20.50929
Ar 13.55091 12.32172 20.20113
Ar 13.39095 14.49304 17.26453
Ar 11.28498 17.19900 0.38602
Ar 11.00829 20.24784 2.48556
Ar 15.05724 16.77607 3.26005
Ar 14.20141 19.05770 0.41537
Ar 11.63319 17.28908 4.47490
Ar 11.64309 20.09358 9.57642
Ar 15.83071 18.06515 8.42233
Ar 13.36222 19.90020 5.98562
Ar 11.45223 17.73472 11.91631
Ar 11.40409 20.55616 14.32438
Ar 13.87854 17.49602 14.23792
Ar 14.88563 21.18315 10.49333
Ar 10.61254 17.35054 16.88630
Ar 10.74145 19.75975 19.88204
Ar 13.91657 17.38395 19.97904
Ar 13.93253 20.27725 17.74320
Ar 16.53011 21.84084 22.48196
Ar 16.85317 2.91184 2.27609
Ar 19.72326 22.55676 2.22347
Ar 18.57596 1.83493 22.34862
Ar 17.60857 22.67755 5.29036
Ar 17.41143 3.00728 7.66984
Ar 20.38827 0.53996 8.65916
Ar 19.68808 3.29944 4.43489
Ar 17.06939 1.12964 11.50819
Ar 17.80714 3.18065 14.30285
Ar 19.70137 0.11421 13.63427
Ar 20.00352 3.25750 11.26984
Ar 17.15849 0.02280 18.28069
Ar 16.20304 3.46547 19.98989
Ar 20.20355 22.40452 19.76621
Ar 20.30760 2.07373 16.94628
Ar 16.37833 6.57627 22.55713
Ar 17.13366 8.64240 2.63452
Ar 19.41682 5.47228 1.06904
Ar 20.35982 8.74728 21.68210
Ar 17.55756 6.27367 4.95420
Ar 17.52901 8.60506 8.27274
Ar 20.07822 5.41811 8.61218
Ar 20.88716 8.05495 4.93843
Ar 16.88840 4.92158 10.80598
Ar 17.04959 7.63149 14.45124
Ar 20.40726 5.80547 15.03109
Ar 19.58353 8.23537 11.56185
Ar 17.18613 5.80524 17.32299
Ar 16.83420 9.00922 20.08022
Ar 20.63736 4.33940 20.07273
Ar 19.67644 8.55859 17.56019
Ar 16.26732 11.96956 22.72265
Ar 17.03977 13.69675 2.93117
Ar 19.61454 11.29010 2.59748
Ar 19.26170 14.27763 22.53607
Ar 17.48342 11.45627 5.66308
Ar 16.66076 14.40951 9.31689
Ar 19.77852 11.84034 8.98726
Ar 19.73857 14.25053 6.37805
Ar 16.96065 11.32167 11.61759
Ar 16.26860 13.97224 14.37229
Ar 19.58616 10.99837 14.04856
Ar 19.29988 14.11409 12.17176
Ar 16.61666 11.40057 17.18319
Ar 17.11515 14.14418 19.40807
Ar 20.35961 11.50605 19.16397
Ar 19.27124 14.28974 16.32498
Ar 17.49238 17.58314 22.67702
Ar 17.02334 19.65792 2.80531
Ar 20.07543 16.45853 2.90587
Ar 20.05917 20.03398 22.27372
Ar 17.88979 17.23760 5.77168
Ar 19.16280 20.27483 8.10114
Ar 20.20381 16.89869 9.08146
Ar 20.74421 19.90690 4.34091
Ar 16.81110 16.93483 11.98563
Ar 16.66903 20.16514 13.83697
Ar 19.68608 17.06652 14.44781
Ar 20.94966 19.89169 11.62382
Ar 16.77924 16.70293 16.99116
Ar 17.10210 19.49161 19.82787
Ar 19.50907 16.63827 19.45713
Ar 19.16289 20.50687 16.29334
256
frame 16
Ar 0.07666 0.89071 0.31434
Ar 22.76983 4.24519 1.79172
Ar 2.60746 22.05893 2.91813
Ar 3.53353 2.28864 0.90160
Ar 22.56509 0.85158 4.74018
Ar 0.39366 3.52764 9.16047
Ar 2.71906 22.80210 9.02340
Ar 3.10122 2.28162 5.56868
Ar 22.77873 0.97154 11.34316
Ar 22.66242 2.98990 14.61558
Ar 3.49475 22.02565 14.46871
Ar 3.02087 2.45029 12.49969
Ar 0.31397 22.74022 18.35899
Ar 1.70001 3.29685 20.35731
Ar 3.29939 22.39526 20.32149
Ar 2.60963 2.15156 16.43869
Ar 0.13424 6.39314 21.60618
Ar 22.56086 9.36099 1.88734
Ar 3.25314 5.28149 3.47303
Ar 2.39309 8.99403 22.22537
Ar 0.01790 4.86093 5.41216
Ar 0.27982 8.89208 9.49550
Ar 3.21746 5.89599 7.93412
Ar 2.22990 8.68383 5.04708
Ar 22.43966 6.06196 11.47747
Ar 22.49451 9.03672 14.15673
Ar 2.88958 5.59452 14.14880
Ar 3.44661 7.65844 11.13336
Ar 0.46562 5.22069 17.47906
Ar 0.05128 8.67172 18.91085
Ar 2.77140 6.48161 19.52020
Ar 3.22597 8.51858 16.78500
Ar 22.72341 11.58049 22.17232
Ar 22.49186 13.05533 2.84698
Ar 3.35835 11.34229 2.68314
Ar 2.57200 13.83529 0.54316
Ar 22.22023 11.78835 6.26208
Ar 22.75644 14.22173 8.75186
Ar 3.48243 11.67484 8.92035
Ar 2.96168 14.13003 6.13944
Ar 22.53957 11.83493 10.96434
Ar 22.43533 13.33930 14.19344
Ar 2.83382 11.49070 13.47869
Ar 3.17001 14.34304 10.98920
Ar 0.77286 11.52562 17.13949
Ar 22.76357 14.34019 20.37493
Ar 2.82341 11.60319 19.98602
Ar 3.03581 14.09473 17.69576
Ar 0.09858 16.28190 0.75919
Ar 0.12531 19.99951 1.42383
Ar 3.42726 16.99990 2.39192
Ar 2.86418 19.61281 22.63868
Ar 22.50050 16.42460 5.64757
Ar 22.54524 20.68518 7.60710
Ar 2.01884 17.43959 8.19417
Ar 2.82443 19.39899 5.13371
Ar 0.15257 16.03103 12.02032
Ar 0.12062 19.82806 15.27060
Ar 2.19853 16.46377 15.54451
Ar 1.85850 20.11707 11.28206
Ar 22.45048 17.00165 17.71367
Ar 22.78913 19.73479 20.40162
Ar 2.52175 16.70161 20.63514
Ar 2.99388 19.90234 17.87404
Ar 5.87897 22.81390 22.33700
Ar 6.00853 3.53695 3.35765
Ar 7.94743 0.18949 2.57186
Ar 7.82172 3.11387 0.37356
Ar 6.16053 22.38225 5.81463
Ar 5.50835 2.37290 8.74480
Ar 8.56167 22.69145 8.87061
Ar 8.08646 3.19454 5.90240
Ar 5.73581 22.49014 11.16387
Ar 5.80922 2.33546 14.22789
Ar 8.18212 22.72244 14.34356
Ar 8.42882 2.72035 11.91035
Ar 6.04176 0.65901 17.26813
Ar 5.49650 3.33306 19.97918
Ar 8.28115 0.19244 19.87764
Ar 8.49580 2.90147 16.75891
Ar 4.85667 6.12311 0.23618
Ar 6.22833 9.21068 2.33650
Ar 8.57839 5.46658 2.79439
Ar 8.77086 8.57193 22.16250
Ar 5.94921 6.78881 5.23948
Ar 6.03550 8.48915 9.02945
Ar 8.35867 5.48720 9.27306
Ar 8.92610 8.56391 5.42726
Ar 5.52170 5.21531 11.03522
Ar 6.02988 8.59200 14.58415
Ar 8.39611 5.22489 14.33649
Ar 9.15174 8.77802 11.38717
Ar 5.15553 5.12821 16.91999
Ar 5.41274 8.62657 20.33485
Ar 8.64641 5.62183 20.42140
Ar 8.07201 7.86618 17.92730
Ar 5.45750 11.48070 22.73029
Ar 5.81938 14.11096 3.31712
Ar 8.69096 12.09284 3.76257
Ar 9.25433 14.95361 2.14891
Ar 6.07962 10.64366 5.38068
Ar 6.46155 14.44524 9.13010
Ar 9.55049 12.34294 9.69743
Ar 8.90256 14.92445 6.09992
Ar 6.10348 11.69631 11.57673
Ar 5.64014 15.72971 14.07527
Ar 9.32391 11.31818 14.06137
Ar 8.41352 14.91144 11.95224
Ar 6.28889 11.19509 17.30647
Ar 6.37805 14.20644 20.10768
Ar 9.22002 11.12112 19.97810
Ar 9.28452 13.85795 17.70365
Ar 5.82550 16.94965 22.49024
Ar 5.74639 20.54728 2.48355
Ar 8.21778 17.99247 3.43993
Ar 8.54230 19.83267 0.11104
Ar 5.58143 17.00889 6.15753
Ar 5.19187 19.66448 8.77431
Ar 8.33936 17.61504 8.73455
Ar 9.98581 20.11833 6.02984
Ar 4.63480 17.43761 11.25211
Ar 4.50744 18.91841 14.62210
Ar 8.45362 17.97781 14.10345
Ar 8.82638 20.37474 11.74051
Ar 5.72293 16.96101 17.67220
Ar 5.93452 19.58024 19.89795
Ar 8.57029 16.93640 20.06216
Ar 8.00791 20.03901 17.31215
Ar 10.85369 0.43476 22.31187
Ar 11.00495 2.57957 2.59874
Ar 14.17256 22.75779 2.81423
Ar 13.97694 2.23900 0.07672
Ar 11.18466 0.53380 6.04035
Ar 10.64807 2.84981 8.88710
Ar 14.09470 0.88187 8.10187
Ar 14.07906 2.64945 5.10196
Ar 11.33216 0.20857 11.81270
Ar 11.61772 3.11659 14.55494
Ar 15.56110 0.58969 15.13975
Ar 14.05063 2.57698 11.75784
Ar 10.85336 22.36746 17.47129
Ar 11.54518 3.11192 19.69159
Ar 13.72661 0.29502 19.68271
Ar 13.85381 2.77614 17.21309
Ar 11.18562 5.66779 0.15852
Ar 10.62567 9.18264 2.48716
Ar 14.29729 5.37651 3.02657
Ar 13.94362 9.33443 22.40827
Ar 11.19656 4.90715 5.58463
Ar 11.54570 7.52318 8.58570
Ar 14.07124 4.22361 8.13977
Ar 14.51628 8.30981 5.93666
Ar 11.13547 5.17382 11.75844
Ar 11.61748 7.76955 13.96983
Ar 14.29304 5.25092 14.42819
Ar 14.66036 8.22739 11.26178
Ar 11.53278 5.79509 16.91510
Ar 11.35736 8.43243 19.65441
Ar 14.18522 6.23995 19.76589
Ar 14.45878 8.12982 16.91183
Ar 10.85899 11.81293 22.74914
Ar 12.65256 14.28543 2.30439
Ar 14.50414 10.83623 2.81674
Ar 14.88567 15.25619 22.58510
Ar 11.74339 11.22212 5.67991
Ar 12.06340 15.12055 8.32415
Ar 14.26980 11.52101 8.78158
Ar 14.10053 13.69762 5.58268
Ar 12.39825 10.73654 11.89051
Ar 11.23382 14.72503 14.57647
Ar 15.16192 10.37141 14.49103
Ar 13.66295 14.09474 11.58624
Ar 12.27581 11.04700 17.01101
Ar 11.24902 14.84891 20.48190
Ar 13.54433 12.25699 20.13249
Ar 13.39274 14.52024 17.38075
Ar 11.36564 17.16804 0.38496
Ar 11.07627 20.29322 2.50836
Ar 15.07989 16.77210 3.21408
Ar 14.10790 19.00073 0.36145
Ar 11.63431 17.22827 4.41951
Ar 11.63289 20.19181 9.60331
Ar 15.84492 18.07891 8.45291
Ar 13.45129 19.91784 5.91618
Ar 11.39158 17.70535 12.03578
Ar 11.43209 20.40718 14.35917
Ar 13.93894 17.52370 14.26475
Ar 14.85445 21.23035 10.44602
Ar 10.63850 17.35819 16.86981
Ar 10.74355 19.73783 19.94521
Ar 13.77289 17.49574 20.03251
Ar 13.92204 20.29572 17.64841
Ar 16.49487 21.87923 22.46754
Ar 16.97836 2.87434 2.26213
Ar 19.71590 22.45891 2.22376
Ar 18.59573 1.80144 22.35399
Ar 17.72329 22.69371 5.26349
Ar 17.40832 2.94526 7.70268
Ar 20.44591 0.65809 8.59184
Ar 19.77553 3.38925 4.30617
Ar 17.13197 1.19291 11.53100
Ar 17.80761 3.24402 14.28793
Ar 19.75507 0.10305 13.49576
Ar 20.08438 3.30965 11.25128
Ar 17.24305 22.79831 18.35120
Ar 16.02573 3.51492 19.96859
Ar 20.17187 22.29214 19.78253
Ar 20.20024 2.02917 16.97432
Ar 16.39724 6.56114 22.54274
Ar 17.06651 8.56292 2.56144
Ar 19.43750 5.48864 1.00245
Ar 20.21883 8.67081 21.64799
Ar 17.58380 6.28739 4.90418
Ar 17.59714 8.60721 8.32823
Ar 20.08341 5.41364 8.49267
Ar 20.88977 8.05593 4.89084
Ar 16.94036 4.84916 10.92728
Ar 17.11566 7.70028 14.37271
Ar 20.37856 5.84210 15.04258
Ar 19.61147 8.27261 11.46134
Ar 17.24010 5.88694 17.34593
Ar 16.89909 9.02086 20.00786
Ar 20.74331 4.20224 20.13337
Ar 19.64317 8.54094 17.51615
Ar 16.15937 11.99353 22.79956
Ar 17.06182 13.68491 2.93060
Ar 19.70870 11.35547 2.60416
Ar 19.26373 14.27520 22.45872
Ar 17.48616 11.42577 5.73514
Ar 16.64652 14.42761 9.37570
Ar 19.72504 11.71367 8.88312
Ar 19.63643 14.14832 6.25175
Ar 16.92663 11.30326 11.49064
Ar 16.17893 13.91674 14.39354
Ar 19.45774 10.83015 14.09223
Ar 19.30617 14.02954 12.25904
Ar 16.59234 11.30636 17.25293
Ar 17.08548 14.01646 19.48236
Ar 20.38742 11.57380 19.02963
Ar 19.30533 14.26545 16.28330
Ar 17.58271 17.53142 22.65260
Ar 16.96213 19.73340 2.91215
Ar 20.15023 16.33006 2.84256
Ar 19.94839 20.06375 22.24013
Ar 18.00373 17.33781 5.88186
Ar 19.13199 20.38453 8.07809
Ar 20.18203 16.89684 9.12757
Ar 20.75725 19.86686 4.27809
Ar 16.73815 17.13625 11.90007
Ar 16.67831 20.11902 13.73022
Ar 19.76185 17.09795 14.38666
Ar 20.95634 19.89330 11.68294
Ar 16.76891 16.74299 17.06247
Ar 17.03524 19.48461 19.70275
Ar 19.51381 16.64511 19.40944
Ar 19.10883 20.55575 16.42007
256
frame 17
Ar 0.10844 0.90658 0.27271
Ar 22.67083 4.27647 1.66146
Ar 2.58946 22.22849 2.89696
Ar 3.50156 2.23073 0.90096
Ar 22.51503 0.88597 4.65462
Ar 0.42468 3.52374 9.18953
Ar 2.67201 22.76515 8.98860
Ar 3.26645 2.27796 5.59148
Ar 22.69639 0.97931 11.33728
Ar 22.63628 3.05856 14.66684
Ar 3.44344 22.00077 14.49786
Ar 2.96941 2.40792 12.47402
Ar 0.30208 22.78248 18.27558
Ar 1.74586 3.37916 20.47898
Ar 3.34384 22.35111 20.36776
Ar 2.72957 2.19456 16.53017
Ar 0.16175 6.28287 21.59882
Ar 22.54494 9.28772 1.87279
Ar 3.14230 5.27551 3.44660
Ar 2.32105 9.11480 22.27871
Ar 0.01475 4.82445 5.41453
Ar 0.21643 8.87830 9.46468
Ar 3.17605 5.87023 7.97198
Ar 2.21877 8.62821 5.07101
Ar 22.40321 5.96236 11.54287
Ar 22.47306 8.94891 14.21838
Ar 2.91614 5.54724 14.17304
Ar 3.44754 7.70158 11.10235
Ar 0.48245 5.29512 17.53341
Ar 22.74008 8.62408 18.98447
Ar 2.89491 6.38270 19.52231
Ar 3.24411 8.56462 16.75768
Ar 22.60179 11.55458 22.17360
Ar 22.54548 13.16826 2.88189
Ar 3.34325 11.32669 2.65530
Ar 2.63066 13.74502 0.47201
Ar 22.19951 11.75948 6.29630
Ar 22.81546 14.23698 8.74635
Ar 3.46714 11.73190 9.09666
Ar 2.83409 14.15194 6.31132
Ar 22.53968 11.83481 10.96189
Ar 22.33713 13.33927 14.30603
Ar 2.88563 11.47677 13.42973
Ar 3.09461 14.43524 10.89588
Ar 0.74200 11.60769 17.15603
Ar 22.71303 14.34898 20.29679
Ar 2.87725 11.52968 20.09398
Ar 2.99896 14.01076 17.73357
Ar 0.16795 16.21102 0.77718
Ar 0.06603 20.09723 1.37885
Ar 3.41410 17.01983 2.40611
Ar 2.97048 19.52972 22.66090
Ar 22.51246 16.32308 5.65885
Ar 22.59584 20.80966 7.54663
Ar 1.99873 17.41588 8.21746
Ar 2.79026 19.39967 5.08607
Ar 0.17582 16.03395 11.97479
Ar 0.18770 19.75283 15.28223
Ar 2.14929 16.55831 15.53404
Ar 1.86633 20.06739 11.19283
Ar 22.48686 17.13238 17.75000
Ar 22.66698 19.62280 20.39735
Ar 2.59237 16.76710 20.57511
Ar 2.85814 19.84280 17.77028
Ar 5.88261 22.78449 22.49347
Ar 5.99573 3.57646 3.39334
Ar 7.95331 0.15628 2.69218
Ar 7.84677 3.14402 0.29054
Ar 6.18575 22.30051 5.85642
Ar 5.49504 2.38521 8.69609
Ar 8.55391 22.62022 8.89787
Ar 8.04231 3.19661 5.95443
Ar 5.74223 22.47921 11.17383
Ar 5.77244 2.54767 14.22753
Ar 8.28136 22.64419 14.29744
Ar 8.39816 2.68771 11.79704
Ar 5.97329 0.57154 17.29094
Ar 5.52564 3.43332 20.00346
Ar 8.21379 0.22964 19.75825
Ar 8.38866 2.91419 16.85693
Ar 4.84034 6.10118 0.29116
Ar 6.29466 9.12053 2.21167
Ar 8.63885 5.37165 2.81714
Ar 8.87352 8.53606 22.19520
Ar 6.00748 6.78214 5.20117
Ar 5.98706 8.49839 9.05927
Ar 8.29378 5.53992 9.34088
Ar 8.97426 8.46614 5.49930
Ar 5.57507 5.25244 11.01493
Ar 5.97879 8.67370 14.46754
Ar 8.47805 5.21043 14.28443
Ar 9.21333 8.77916 11.34186
Ar 5.12694 5.05826 16.87378
Ar 5.49340 8.57357 20.36458
Ar 8.51256 5.48763 20.46909
Ar 8.14230 7.90099 17.84513
Ar 5.47560 11.54859 22.53202
Ar 5.76776 14.13493 3.40634
Ar 8.72992 12.12304 3.81557
Ar 9.29651 14.97116 2.25517
Ar 6.14272 10.74242 5.42564
Ar 6.38061 14.47099 9.06328
Ar 9.63314 12.47731 9.61003
Ar 8.95560 14.92947 6.07562
Ar 6.17076 11.73138 11.63868
Ar 5.62593 15.69518 14.12615
Ar 9.33780 11.25188 14.06322
Ar 8.38462 14.97983 11.94982
Ar 6.23779 11.18631 17.19145
Ar 6.27996 14.22476 20.23537
Ar 9.25873 11.21510 19.79617
Ar 9.33814 13.84324 17.75500
Ar 5.88270 17.01819 22.50835
Ar 5.75005 20.57159 2.55800
Ar 8.20051 17.99552 3.49434
Ar 8.55060 19.90849 0.15061
Ar 5.56821 17.03265 6.22460
Ar 5.15379 19.69113 8.83139
Ar 8.26926 17.61510 8.64580
Ar 9.93349 20.09084 6.01978
Ar 4.67946 17.46060 11.26591
Ar 4.57108 18.85159 14.61806
Ar 8.58326 18.12655 14.13984
Ar 8.80012 20.46504 11.77358
Ar 5.81051 17.11932 17.62515
Ar 5.96873 19.58652 19.95911
Ar 8.66458 16.97150 20.06860
Ar 7.95849 19.98168 17.37113
Ar 10.77062 0.35034 22.38379
Ar 11.02585 2.62354 2.63489
Ar 14.19978 22.79489 2.80562
Ar 13.90857 2.16645 0.01793
Ar 11.19811 0.50645 6.04787
Ar 10.70698 2.76336 8.85710
Ar 14.01556 0.77961 8.00435
Ar 14.06309 2.66374 5.06525
Ar 11.36023 0.20285 11.75681
Ar 11.54335 3.14380 14.62439
Ar 15.62281 0.73763 15.09400
Ar 14.01256 2.59131 11.77305
Ar 10.89737 22.31742 17.48344
Ar 11.55978 3.17814 19.85720
Ar 13.83106 0.25867 19.75531
Ar 13.84861 2.73593 17.22145
Ar 11.18005 5.72404 0.19910
Ar 10.65138 9.16304 2.40746
Ar 14.28890 5.42536 3.00424
Ar 13.89365 9.38974 22.47487
Ar 11.16622 4.92603 5.73650
Ar 11.53979 7.53960 8.61167
Ar 14.01230 4.20702 8.00627
Ar 14.52297 8.24647 5.94736
Ar 11.26127 5.13335 11.75876
Ar 11.52898 7.76787 13.90254
Ar 14.28554 5.18541 14.49097
Ar 14.63809 8.31879 11.24932
Ar 11.38542 5.75379 16.90061
Ar 11.39357 8.43768 19.56222
Ar 14.06563 6.21917 19.80215
Ar 14.46863 8.09517 16.96198
Ar 10.85045 11.89097 22.75981
Ar 12.72244 14.32798 2.37919
Ar 14.52226 10.82227 2.89336
Ar 14.87802 15.34395 22.54598
Ar 11.78211 11.30531 5.66478
Ar 12.13075 15.16300 8.32318
Ar 14.30621 11.49757 8.84472
Ar 14.07949 13.65489 5.53941
Ar 12.40400 10.59287 11.89575
Ar 11.28875 14.69070 14.54148
Ar 15.18427 10.36789 14.45270
Ar 13.66017 14.13938 11.61215
Ar 12.24522 10.98664 16.98936
Ar 11.26210 14.89512 20.46544
Ar 13.55771 12.17287 20.07422
Ar 13.41041 14.56361 17.49816
Ar 11.40785 17.12541 0.38058
Ar 11.16027 20.35454 2.53541
Ar 15.10480 16.76550 3.17409
Ar 14.05883 18.98695 0.32136
Ar 11.63332 17.14474 4.36404
Ar 11.61718 20.29391 9.58986
Ar 15.84068 18.10033 8.49757
Ar 13.57198 19.94804 5.84853
Ar 11.31298 17.64340 12.13211
Ar 11.46412 20.26102 14.41120
Ar 14.02165 17.54400 14.32411
Ar 14.84290 21.26904 10.41934
Ar 10.67688 17.37596 16.87229
Ar 10.75654 19.72430 20.01576
Ar 13.62814 17.60247 20.06189
Ar 13.91692 20.29819 17.53155
Ar 16.44566 21.90569 22.45668
Ar 17.07089 2.84174 2.27571
Ar 19.70741 22.37787 2.21239
Ar 18.64895 1.77896 22.31795
Ar 17.83458 22.71463 5.24224
Ar 17.41214 2.87474 7.73097
Ar 20.50615 0.81426 8.52200
Ar 19.86956 3.47190 4.18330
Ar 17.20170 1.23103 11.52126
Ar 17.81044 3.33112 14.28752
Ar 19.82674 0.08736 13.37380
Ar 20.17092 3.34906 11.25566
Ar 17.26814 22.78282 18.41198
Ar 15.88635 3.51492 19.96136
Ar 20.14391 22.19775 19.81108
Ar 20.08229 1.98267 17.01036
Ar 16.40266 6.52889 22.52784
Ar 17.01309 8.51073 2.45925
Ar 19.47277 5.50321 0.94198
Ar 20.06726 8.60144 21.61718
Ar 17.61394 6.26264 4.89399
Ar 17.66101 8.60587 8.38329
Ar 20.08673 5.43014 8.35076
Ar 20.88920 8.06068 4.84779
Ar 16.97797 4.79713 11.04931
Ar 17.21831 7.74154 14.26833
Ar 20.35054 5.88247 15.04870
Ar 19.63371 8.31255 11.35826
Ar 17.29395 5.94282 17.38517
Ar 16.96008 9.03703 19.93217
Ar 20.83076 4.04771 20.18582
Ar 19.59863 8.51563 17.45242
Ar 16.08008 12.01324 0.02783
Ar 17.07977 13.69660 2.93745
Ar 19.75080 11.38786 2.60537
Ar 19.27627 14.26452 22.38697
Ar 17.47292 11.37282 5.81057
Ar 16.64064 14.44378 9.42484
Ar 19.65114 11.57981 8.78625
Ar 19.53127 14.06932 6.11770
Ar 16.88977 11.28193 11.35199
Ar 16.08391 13.86744 14.41429
Ar 19.31533 10.66966 14.15217
Ar 19.31690 13.95189 12.33703
Ar 16.59813 11.22885 17.36456
Ar 17.04262 13.88398 19.56972
Ar 20.41104 11.66580 18.90652
Ar 19.34843 14.20942 16.25879
Ar 17.67052 17.47063 22.64251
Ar 16.91126 19.82503 3.01842
Ar 20.19897 16.19857 2.78537
Ar 19.81027 20.07469 22.25169
Ar 18.13234 17.44187 5.96982
Ar 19.06219 20.46363 8.05238
Ar 20.15708 16.89316 9.17626
Ar 20.76875 19.80927 4.23924
Ar 16.67210 17.31900 11.80882
Ar 16.68727 20.08892 13.62757
Ar 19.84424 17.15669 14.31280
Ar 20.96101 19.89074 11.73961
Ar 16.74078 16.79658 17.12191
Ar 16.96731 19.47507 19.56949
Ar 19.51084 16.65743 19.38413
Ar 19.07119 20.59009 16.54580
256
frame 18
Ar 0.13292 0.91311 0.22340
Ar 22.58965 4.29487 1.54694
Ar 2.56938 22.40743 2.87579
Ar 3.46601 2.19813 0.89762
Ar 22.46121 0.91818 4.57036
Ar 0.47487 3.53015 9.17890
Ar 2.62632 22.73905 8.94343
Ar 3.42910 2.26881 5.61958
Ar 22.62904 0.93748 11.35876
Ar 22.60659 3.12491 14.69591
Ar 3.37849 22.01556 14.52256
Ar 2.88334 2.35752 12.41200
Ar 0.31482 0.00705 18.17352
Ar 1.78908 3.40147 20.60873
Ar 3.35747 22.31723 20.38950
Ar 2.85671 2.24373 16.63224
Ar 0.17793 6.19874 21.62617
Ar 22.53424 9.18565 1.88296
Ar 2.98284 5.29637 3.41694
Ar 2.26515 9.19210 22.36481
Ar 0.02925 4.79367 5.43246
Ar 0.15808 8.83463 9.40572
Ar 3.13576 5.83964 7.99887
Ar 2.20602 8.57045 5.09781
Ar 22.38685 5.88237 11.63465
Ar 22.46363 8.85816 14.28095
Ar 2.93043 5.51082 14.19389
Ar 3.36831 7.80011 11.10763
Ar 0.46477 5.35404 17.55352
Ar 22.62078 8.58789 19.06256
Ar 3.07999 6.31567 19.54004
Ar 3.25181 8.62094 16.72857
Ar 22.45957 11.52780 22.17146
Ar 22.64233 13.30712 2.92184
Ar 3.32419 11.27889 2.66237
Ar 2.69335 13.68042 0.36521
Ar 22.19790 11.70627 6.31546
Ar 0.05193 14.29858 8.70918
Ar 3.45259 11.73015 9.23981
Ar 2.71034 14.17483 6.47736
Ar 22.53648 11.82657 11.02387
Ar 22.24303 13.33948 14.42126
Ar 2.93254 11.45932 13.38290
Ar 3.01428 14.54852 10.83120
Ar 0.69089 11.66012 17.15795
Ar 22.65962 14.38292 20.19406
Ar 2.93734 11.47331 20.17876
Ar 3.00059 13.96424 17.77642
Ar 0.24149 16.15918 0.77560
Ar 22.79553 20.19741 1.35060
Ar 3.40300 17.03176 2.42877
Ar 3.12417 19.45932 22.67201
Ar 22.52158 16.22348 5.66270
Ar 22.66371 20.92645 7.48239
Ar 1.98659 17.39561 8.25435
Ar 2.75339 19.39957 5.05037
Ar 0.18245 16.05844 11.93304
Ar 0.24743 19.68732 15.27975
Ar 2.10522 16.64585 15.48864
Ar 1.87486 20.00918 11.11185
Ar 22.52064 17.26287 17.79379
Ar 22.57384 19.50458 20.38504
Ar 2.66931 16.82234 20.49823
Ar 2.72323 19.77519 17.66997
Ar 5.92173 22.74953 22.66972
Ar 5.93455 3.55147 3.39934
Ar 8.01395 0.17184 2.81794
Ar 7.87101 3.15179 0.18959
Ar 6.20711 22.22023 5.90772
Ar 5.48673 2.40080 8.64371
Ar 8.54900 22.55130 8.91110
Ar 8.02384 3.18330 6.05115
Ar 5.73973 22.47300 11.20332
Ar 5.76309 2.76673 14.24630
Ar 8.38233 22.58369 14.28377
Ar 8.37053 2.63833 11.66637
Ar 5.85146 0.45442 17.29714
Ar 5.54994 3.51868 20.04013
Ar 8.16901 0.26531 19.66635
Ar 8.31058 2.93387 16.97787
Ar 4.82821 6.07312 0.34089
Ar 6.37266 9.01256 2.08368
Ar 8.75363 5.34268 2.84729
Ar 8.96192 8.50742 22.23767
Ar 6.04298 6.76664 5.17101
Ar 5.96856 8.52290 9.05981
Ar 8.30121 5.60249 9.35741
Ar 9.04992 8.37158 5.58509
Ar 5.60164 5.22521 11.05017
Ar 5.93782 8.75000 14.33436
Ar 8.55435 5.23236 14.22372
Ar 9.25998 8.77573 11.28579
Ar 5.11370 4.99930 16.82870
Ar 5.59049 8.53044 20.39141
Ar 8.38199 5.34278 20.50355
Ar 8.21087 7.94077 17.74596
Ar 5.51115 11.61759 22.33618
Ar 5.70701 14.16705 3.49628
Ar 8.79626 12.10909 3.86338
Ar 9.32930 15.01007 2.32710
Ar 6.16064 10.83462 5.50494
Ar 6.28605 14.49428 8.97995
Ar 9.72143 12.60489 9.51857
Ar 9.00811 14.93970 6.05552
Ar 6.24662 11.76334 11.70473
Ar 5.61847 15.60905 14.19153
Ar 9.35013 11.19019 14.07214
Ar 8.37001 15.05492 11.95552
Ar 6.18463 11.18295 17.08352
Ar 6.17607 14.23599 20.34913
Ar 9.27176 11.28614 19.61196
Ar 9.38349 13.86311 17.75799
Ar 5.94281 17.08776 22.54157
Ar 5.70966 20.53669 2.63136
Ar 8.16815 18.01403 3.55431
Ar 8.54738 19.98346 0.18004
Ar 5.54974 17.05112 6.28403
Ar 5.11782 19.75250 8.85219
Ar 8.21159 17.62283 8.56644
Ar 9.85938 20.04855 6.02031
Ar 4.72921 17.48216 11.29029
Ar 4.65701 18.80319 14.61448
Ar 8.66643 18.24568 14.21379
Ar 8.76470 20.54860 11.75645
Ar 5.88682 17.24231 17.56187
Ar 5.97009 19.62106 20.08677
Ar 8.72552 17.02135 20.07103
Ar 7.94684 19.94220 17.38342
Ar 10.68325 0.25799 22.46101
Ar 11.05220 2.66119 2.67303
Ar 14.22948 22.80884 2.79703
Ar 13.84460 2.11232 22.78445
Ar 11.19342 0.49109 6.03136
Ar 10.77191 2.67820 8.83083
Ar 13.95118 0.65355 7.92439
Ar 14.05551 2.65902 4.99165
Ar 11.38355 0.21336 11.71068
Ar 11.43454 3.12142 14.68067
Ar 15.68622 0.85392 15.03018
Ar 13.96480 2.61561 11.78475
Ar 10.94168 22.28473 17.48283
Ar 11.55782 3.25130 20.03666
Ar 13.93460 0.21033 19.84443
Ar 13.84166 2.71310 17.22950
Ar 11.18911 5.77780 0.23734
Ar 10.69201 9.14045 2.33022
Ar 14.27949 5.49619 2.96440
Ar 13.82065 9.41412 22.53263
Ar 11.13956 4.95551 5.88543
Ar 11.53812 7.55566 8.63744
Ar 13.95305 4.24962 7.92211
Ar 14.52811 8.18529 5.95797
Ar 11.38853 5.08612 11.72276
Ar 11.44876 7.78564 13.86453
Ar 14.30769 5.14078 14.54776
Ar 14.66252 8.35307 11.22259
Ar 11.23185 5.72153 16.91080
Ar 11.43395 8.44185 19.47024
Ar 13.91360 6.22157 19.85300
Ar 14.46979 8.06135 17.00650
Ar 10.85658 11.97934 22.79730
Ar 12.79120 14.33719 2.43985
Ar 14.50862 10.82494 3.00370
Ar 14.86212 15.42425 22.49800
Ar 11.78552 11.34553 5.65586
Ar 12.19594 15.20887 8.32292
Ar 14.33678 11.47195 8.89270
Ar 14.11294 13.65048 5.50664
Ar 12.36474 10.50728 11.91016
Ar 11.34096 14.64753 14.49476
Ar 15.15817 10.39609 14.36683
Ar 13.65525 14.18789 11.64059
Ar 12.20312 10.92928 16.95019
Ar 11.30360 14.91501 20.46474
Ar 13.58364 12.07387 20.03152
Ar 13.43991 14.62214 17.60514
Ar 11.39468 17.06452 0.37883
Ar 11.25546 20.42531 2.56586
Ar 15.13894 16.76613 3.14239
Ar 14.07341 19.03357 0.30703
Ar 11.63264 17.05652 4.31619
Ar 11.59217 20.38044 9.54168
Ar 15.81683 18.13056 8.53850
Ar 13.70557 19.98604 5.77978
Ar 11.24044 17.55299 12.18545
Ar 11.50573 20.13822 14.47984
Ar 14.11565 17.55478 14.40734
Ar 14.85578 21.29873 10.41744
Ar 10.73090 17.39799 16.89572
Ar 10.77787 19.73404 20.09105
Ar 13.49110 17.69716 20.05343
Ar 13.91849 20.28782 17.39784
Ar 16.38444 21.91978 22.44793
Ar 17.12143 2.81256 2.30941
Ar 19.69849 22.32139 2.18491
Ar 18.73064 1.76457 22.24508
Ar 17.94086 22.74342 5.22998
Ar 17.41796 2.79948 7.75707
Ar 20.56336 0.99233 8.44317
Ar 19.96705 3.54590 4.06805
Ar 17.26215 1.24743 11.47848
Ar 17.82325 3.44103 14.30148
Ar 19.91159 0.06832 13.28181
Ar 20.24213 3.37686 11.27530
Ar 17.21308 22.81760 18.46029
Ar 15.79727 3.46177 19.97222
Ar 20.15104 22.13440 19.83538
Ar 19.95947 1.93616 17.04867
Ar 16.38912 6.47953 22.49711
Ar 16.97860 8.48271 2.34356
Ar 19.51186 5.51893 0.88554
Ar 19.92113 8.53489 21.59426
Ar 17.64540 6.20994 4.91538
Ar 17.70964 8.59318 8.42958
Ar 20.08985 5.45929 8.19628
Ar 20.88482 8.06724 4.81261
Ar 16.99875 4.77313 11.16375
Ar 17.34030 7.74103 14.14954
Ar 20.32724 5.92325 15.04854
Ar 19.65801 8.35319 11.25923
Ar 17.33768 5.96628 17.43429
Ar 17.00539 9.03924 19.87602
Ar 20.89760 3.87307 20.22747
Ar 19.55313 8.50295 17.37287
Ar 16.03108 12.03750 0.05361
Ar 17.09503 13.72792 2.95531
Ar 19.75148 11.39250 2.60313
Ar 19.30285 14.24082 22.32404
Ar 17.43267 11.28982 5.87951
Ar 16.64371 14.46055 9.46397
Ar 19.57249 11.45032 8.70618
Ar 19.43455 14.02334 5.97873
Ar 16.85929 11.25755 11.21642
Ar 15.99003 13.82844 14.43818
Ar 19.16863 10.52782 14.22465
Ar 19.32638 13.87992 12.40458
Ar 16.61851 11.17205 17.47241
Ar 16.99180 13.76211 19.66478
Ar 20.42284 11.76946 18.79548
Ar 19.38780 14.13978 16.24743
Ar 17.74300 17.40012 22.64536
Ar 16.86675 19.92649 3.12056
Ar 20.21735 16.06727 2.73963
Ar 19.65612 20.06356 22.31718
Ar 18.27347 17.54610 6.03530
Ar 18.97292 20.52573 8.02898
Ar 20.13002 16.88792 9.22772
Ar 20.77971 19.73073 4.22815
Ar 16.61762 17.45189 11.70585
Ar 16.70096 20.10720 13.55332
Ar 19.92971 17.23007 14.23417
Ar 20.96601 19.87978 11.79030
Ar 16.69786 16.84949 17.16534
Ar 16.89899 19.45944 19.44753
Ar 19.49908 16.66925 19.37933
Ar 19.05490 20.60101 16.65267
256
frame 19
Ar 0.14559 0.91171 0.16530
Ar 22.54171 4.28107 1.47008
Ar 2.54661 22.56674 2.86886
Ar 3.43593 2.20837 0.88128
Ar 22.40459 0.94725 4.48953
Ar 0.54024 3.54041 9.13907
Ar 2.58853 22.72979 8.89189
Ar 3.57881 2.25346 5.65180
Ar 22.59479 0.85201 11.38809
Ar 22.57896 3.18293 14.71008
Ar 3.30472 22.05224 14.54346
Ar 2.78656 2.30318 12.32959
Ar 0.34204 0.05760 18.06064
Ar 1.83509 3.35685 20.73759
Ar 3.35185 22.29375 20.39428
Ar 2.96850 2.29875 16.73754
Ar 0.18881 6.17175 21.66238
Ar 22.52199 9.06345 1.91274
Ar 2.80112 5.33132 3.38271
Ar 2.22814 9.20608 22.48823
Ar 0.06319 4.77076 5.47034
Ar 0.10163 8.76947 9.32539
Ar 3.09986 5.80727 8.01594
Ar 2.19074 8.51229 5.12817
Ar 22.40528 5.84424 11.75049
Ar 22.46323 8.76997 14.34391
Ar 2.92745 5.48582 14.20283
Ar 3.23877 7.92441 11.14453
Ar 0.42850 5.40175 17.55434
Ar 22.52179 8.56934 19.14248
Ar 3.29016 6.27829 19.56351
Ar 3.24845 8.68176 16.70240
Ar 22.29914 11.51088 22.16278
Ar 22.76264 13.44599 2.96950
Ar 3.30708 11.20513 2.69426
Ar 2.75575 13.63976 0.23166
Ar 22.21202 11.63717 6.32045
Ar 0.08878 14.37747 8.67069
Ar 3.44026 11.66643 9.35282
Ar 2.61131 14.19364 6.62446
Ar 22.52909 11.81831 11.12400
Ar 22.16683 13.34426 14.51833
Ar 2.97319 11.43945 13.33808
Ar 2.94347 14.67813 10.78971
Ar 0.62942 11.66700 17.15651
Ar 22.60963 14.43212 20.07951
Ar 2.98338 11.44847 20.19814
Ar 3.04171 13.96647 17.81870
Ar 0.31753 16.13143 0.74993
Ar 22.70137 20.29459 1.32154
Ar 3.39704 17.02988 2.46022
Ar 3.28837 19.41654 22.68893
Ar 22.52388 16.13094 5.65436
Ar 22.73376 21.03332 7.41315
Ar 1.98332 17.38533 8.30165
Ar 2.71281 19.40528 5.02582
Ar 0.15874 16.10713 11.90553
Ar 0.28123 19.64417 15.24291
Ar 2.07209 16.70529 15.41790
Ar 1.88238 19.94282 11.04115
Ar 22.54738 17.37425 17.83504
Ar 22.50282 19.39578 20.38873
Ar 2.74806 16.86060 20.40219
Ar 2.60870 19.70584 17.59396
Ar 5.98460 22.71089 0.01920
Ar 5.85405 3.49183 3.37518
Ar 8.11453 0.21971 2.94781
Ar 7.89170 3.12359 0.10727
Ar 6.22416 22.14144 5.96955
Ar 5.48324 2.41645 8.59760
Ar 8.54515 22.49337 8.90066
Ar 8.02154 3.15836 6.17351
Ar 5.72367 22.47688 11.24992
Ar 5.77315 2.97094 14.25975
Ar 8.47700 22.56334 14.32409
Ar 8.34409 2.57673 11.52880
Ar 5.69101 0.31515 17.27542
Ar 5.54727 3.57186 20.08258
Ar 8.15103 0.29865 19.61611
Ar 8.25096 2.96096 17.11111
Ar 4.81902 6.03728 0.38300
Ar 6.45562 8.90270 1.96000
Ar 8.88639 5.35882 2.88895
Ar 9.03185 8.48618 22.26179
Ar 6.05293 6.74272 5.14580
Ar 5.97589 8.55982 9.03548
Ar 8.38364 5.67158 9.32202
Ar 9.15086 8.28560 5.67846
Ar 5.57572 5.16279 11.14012
Ar 5.90538 8.81944 14.18510
Ar 8.62035 5.27943 14.15721
Ar 9.28192 8.76964 11.21647
Ar 5.12360 4.96886 16.80285
Ar 5.70604 8.49924 20.41832
Ar 8.28323 5.23718 20.50653
Ar 8.27486 7.98044 17.63747
Ar 5.57997 11.65305 22.19137
Ar 5.64359 14.20393 3.58737
Ar 8.88102 12.05683 3.89787
Ar 9.34811 15.05809 2.36730
Ar 6.14022 10.91226 5.60805
Ar 6.18431 14.51249 8.88957
Ar 9.81196 12.72667 9.42538
Ar 9.05860 14.95524 6.04411
Ar 6.33108 11.79442 11.77172
Ar 5.61630 15.47478 14.26608
Ar 9.35991 11.13316 14.08952
Ar 8.36406 15.13381 11.96153
Ar 6.13080 11.18622 16.98376
Ar 6.07649 14.27312 20.42625
Ar 9.26865 11.28605 19.47630
Ar 9.42170 13.95830 17.68524
Ar 6.00893 17.15081 22.59606
Ar 5.63681 20.46054 2.70677
Ar 8.12151 18.04527 3.61650
Ar 8.53542 20.05393 0.20632
Ar 5.51885 17.06492 6.32936
Ar 5.08335 19.84342 8.83785
Ar 8.17087 17.63959 8.50224
Ar 9.77657 19.99825 6.03124
Ar 4.78979 17.49992 11.32526
Ar 4.75861 18.79783 14.60712
Ar 8.67693 18.33201 14.32053
Ar 8.72851 20.59448 11.68352
Ar 5.94329 17.31639 17.49817
Ar 5.94865 19.68272 20.25296
Ar 8.74255 17.07480 20.06947
Ar 7.97666 19.93765 17.36522
Ar 10.59242 0.16255 22.54031
Ar 11.08755 2.68656 2.71072
Ar 14.26280 22.79659 2.78475
Ar 13.78430 2.07975 22.74255
Ar 11.15579 0.48032 5.97846
Ar 10.83680 2.59820 8.81369
Ar 13.91427 0.52584 7.86226
Ar 14.05584 2.64302 4.89147
Ar 11.40009 0.24093 11.68176
Ar 11.30632 3.05096 14.71888
Ar 15.74845 0.93346 14.95064
Ar 13.92614 2.64154 11.79288
Ar 10.98327 22.26935 17.47316
Ar 11.54568 3.32458 20.21920
Ar 14.02125 0.14442 19.93319
Ar 13.81883 2.70115 17.24297
Ar 11.21619 5.82544 0.26883
Ar 10.75015 9.11738 2.27445
Ar 14.26957 5.58424 2.91057
Ar 13.72759 9.40674 22.58466
Ar 11.10939 4.99512 6.02160
Ar 11.54400 7.57200 8.66231
Ar 13.90650 4.33048 7.88975
Ar 14.53188 8.12612 5.96938
Ar 11.50943 5.03828 11.65642
Ar 11.37823 7.80647 13.86581
Ar 14.34886 5.11428 14.59829
Ar 14.73995 8.32103 11.17802
Ar 11.07829 5.70223 16.94545
Ar 11.45674 8.46297 19.38312
Ar 13.75813 6.21864 19.92391
Ar 14.46670 8.03521 17.03491
Ar 10.86800 12.07327 0.02068
Ar 12.85138 14.30603 2.46617
Ar 14.47207 10.83998 3.13829
Ar 14.83469 15.49220 22.44161
Ar 11.75528 11.33983 5.65800
Ar 12.26103 15.25927 8.32147
Ar 14.34776 11.44688 8.91354
Ar 14.20738 13.68478 5.49835
Ar 12.27996 10.49782 11.92887
Ar 11.39057 14.59680 14.44846
Ar 15.10469 10.43275 14.26544
Ar 13.64771 14.23663 11.66668
Ar 12.15220 10.88066 16.89009
Ar 11.37167 14.89902 20.47948
Ar 13.61599 11.96299 20.00291
Ar 13.48062 14.69296 17.69336
Ar 11.34701 17.00502 0.38221
Ar 11.35579 20.49961 2.59923
Ar 15.18643 16.78372 3.11962
Ar 14.13346 19.12709 0.31998
Ar 11.63387 16.98202 4.28408
Ar 11.56126 20.44151 9.45979
Ar 15.77137 18.17231 8.54219
Ar 13.84200 20.02887 5.70861
Ar 11.19294 17.43884 12.18891
Ar 11.56754 20.05454 14.55876
Ar 14.21174 17.55408 14.50449
Ar 14.89153 21.31748 10.44253
Ar 10.80317 17.41757 16.94165
Ar 10.79492 19.78822 20.16948
Ar 13.38079 17.77053 20.00548
Ar 13.92971 20.26810 17.25418
Ar 16.31880 21.92695 22.44241
Ar 17.13286 2.78163 2.34923
Ar 19.69058 22.29444 2.14616
Ar 18.82488 1.75380 22.15404
Ar 18.04188 22.78410 5.22878
Ar 17.41916 2.72438 7.78246
Ar 20.61684 1.17759 8.35174
Ar 20.06097 3.61037 3.96015
Ar 17.30627 1.24628 11.40938
Ar 17.85084 3.56700 14.33136
Ar 19.99084 0.04810 13.23436
Ar 20.27497 3.38670 11.30089
Ar 17.09799 0.07498 18.50084
Ar 15.75440 3.37763 20.00241
Ar 20.19222 22.10287 19.84640
Ar 19.83769 1.89212 17.08412
Ar 16.35503 6.40937 22.44045
Ar 16.96396 8.47555 2.23432
Ar 19.53552 5.54084 0.82973
Ar 19.79724 8.46931 21.58793
Ar 17.67333 6.14364 4.95506
Ar 17.72359 8.55192 8.45432
Ar 20.09417 5.49411 8.03727
Ar 20.87435 8.07264 4.79099
Ar 17.00131 4.78390 11.25994
Ar 17.44073 7.68120 14.02224
Ar 20.31516 5.95892 15.04174
Ar 19.69536 8.39295 11.17728
Ar 17.36117 5.94902 17.48971
Ar 17.02263 9.00201 19.86569
Ar 20.95106 3.68376 20.25625
Ar 19.51931 8.52173 17.28414
Ar 16.00661 12.06634 0.06126
Ar 17.10712 13.77240 2.98251
Ar 19.73509 11.38204 2.59950
Ar 19.34769 14.19971 22.27241
Ar 17.35825 11.17708 5.93213
Ar 16.65532 14.47992 9.49233
Ar 19.51193 11.34527 8.65002
Ar 19.35379 14.00842 5.83829
Ar 16.85080 11.23037 11.10287
Ar 15.90286 13.80541 14.46887
Ar 19.04122 10.43716 14.30491
Ar 19.32899 13.81238 12.45974
Ar 16.63592 11.14943 17.51680
Ar 16.93590 13.66366 19.76536
Ar 20.41381 11.87119 18.70266
Ar 19.40475 14.07481 16.24861
Ar 17.78658 17.30734 22.66222
Ar 16.82558 20.03116 3.21672
Ar 20.20594 15.94104 2.70490
Ar 19.50569 20.04692 22.41827
Ar 18.41971 17.64447 6.08096
Ar 18.87878 20.58415 8.01398
Ar 20.10174 16.88142 9.28354
Ar 20.78996 19.63495 4.24295
Ar 16.57929 17.51257 11.60422
Ar 16.72320 20.19327 13.52426
Ar 20.01532 17.30671 14.15755
Ar 20.97500 19.85622 11.82972
Ar 16.64266 16.88620 17.18554
Ar 16.83063 19.44557 19.35525
Ar 19.48060 16.67793 19.39072
Ar 19.06037 20.58829 16.73337
256
frame 20
Ar 0.14285 0.90315 0.09796
Ar 22.53757 4.21804 1.44491
Ar 2.51936 22.68174 2.89107
Ar 3.42519 2.27301 0.84242
Ar 22.34522 0.97109 4.41444
Ar 0.61174 3.54733 9.08767
Ar 2.56722 22.74335 8.84093
Ar 3.70003 2.22900 5.68725
Ar 22.60834 0.73782 11.39408
Ar 22.55575 3.22741 14.71283
Ar 3.22358 22.09961 14.55985
Ar 2.70129 2.25385 12.24029
Ar 0.37731 0.10795 17.94069
Ar 1.88500 3.26741 20.84961
Ar 3.33441 22.28284 20.39055
Ar 3.04046 2.36008 16.84164
Ar 0.19930 6.20875 21.68055
Ar 22.50052 8.93024 1.95432
Ar 2.62264 5.37097 3.33730
Ar 2.21857 9.17434 22.62667
Ar 0.11069 4.75481 5.53505
Ar 0.04500 8.69404 9.22882
Ar 3.07372 5.77912 8.02472
Ar 2.17177 8.45601 5.16407
Ar 22.46544 5.85309 11.88466
Ar 22.47200 8.69074 14.40678
Ar 2.90376 5.47209 14.19605
Ar 3.08833 8.05795 11.20110
Ar 0.38934 5.44277 17.54971
Ar 22.44123 8.57273 19.22052
Ar 3.48121 6.25616 19.58739
Ar 3.23532 8.74286 16.67980
Ar 22.12847 11.50218 22.14921
Ar 0.07308 13.56373 3.02778
Ar 3.29276 11.11940 2.73928
Ar 2.81611 13.61641 0.08843
Ar 22.23796 11.56001 6.31376
Ar 0.05666 14.44875 8.67490
Ar 3.42821 11.56307 9.44987
Ar 2.57843 14.19916 6.72474
Ar 22.51941 11.81107 11.23965
Ar 22.12732 13.35653 14.57680
Ar 3.00734 11.41797 13.29588
Ar 2.89997 14.79458 10.75554
Ar 0.58305 11.62970 17.16134
Ar 22.56741 14.48934 19.96294
Ar 2.99465 11.43540 20.14642
Ar 3.11074 14.01006 17.85361
Ar 0.39001 16.13215 0.69750
Ar 22.62324 20.38336 1.28763
Ar 3.39805 17.01140 2.50054
Ar 3.43705 19.40793 22.71883
Ar 22.51531 16.05468 5.62813
Ar 22.79190 21.12661 7.33505
Ar 1.98986 17.39326 8.35336
Ar 2.66731 19.42010 5.01363
Ar 0.09282 16.18369 11.89957
Ar 0.26596 19.63656 15.14904
Ar 2.05574 16.72380 15.32687
Ar 1.88766 19.87160 10.98252
Ar 22.56497 17.43835 17.84348
Ar 22.44604 19.31975 20.44496
Ar 2.82718 16.88343 20.29007
Ar 2.53769 19.64215 17.56262
Ar 6.05567 22.67477 0.17692
Ar 5.78610 3.42378 3.32242
Ar 8.23645 0.28001 3.08141
Ar 7.90921 3.04415 0.07883
Ar 6.23699 22.06473 6.03849
Ar 5.48484 2.42975 8.57393
Ar 8.53833 22.45872 8.85347
Ar 8.02814 3.12589 6.29984
Ar 5.69161 22.49432 11.31069
Ar 5.79815 3.13269 14.23529
Ar 8.56703 22.57824 14.41206
Ar 8.31705 2.50827 11.39204
Ar 5.52588 0.15135 17.23709
Ar 5.48773 3.56453 20.12371
Ar 8.15056 0.32801 19.60242
Ar 8.20148 2.99391 17.24720
Ar 4.81073 5.99110 0.41589
Ar 6.53879 8.79837 1.84649
Ar 9.00533 5.40513 2.94491
Ar 9.08041 8.47154 22.24769
Ar 6.04307 6.71298 5.12349
Ar 5.99641 8.60256 8.99777
Ar 8.49982 5.73791 9.25872
Ar 9.26730 8.20877 5.77530
Ar 5.52052 5.09064 11.25604
Ar 5.87910 8.88002 14.02289
Ar 8.67108 5.34520 14.08403
Ar 9.27179 8.76284 11.13681
Ar 5.16176 4.99587 16.82091
Ar 5.84567 8.48441 20.44785
Ar 8.25583 5.22045 20.46000
Ar 8.32819 8.02116 17.52199
Ar 5.69417 11.61649 22.13473
Ar 5.58203 14.24231 3.68011
Ar 8.96379 11.97958 3.91090
Ar 9.34199 15.09355 2.38507
Ar 6.09358 10.97780 5.72732
Ar 6.08017 14.52267 8.79954
Ar 9.90114 12.84230 9.33275
Ar 9.10488 14.97359 6.04364
Ar 6.42275 11.82736 11.83591
Ar 5.61336 15.30746 14.34649
Ar 9.36425 11.08088 14.11722
Ar 8.35950 15.21205 11.96292
Ar 6.07785 11.19687 16.89212
Ar 5.98700 14.37634 20.44354
Ar 9.25164 11.22681 19.38760
Ar 9.45460 14.11796 17.55290
Ar 6.08766 17.19452 22.67834
Ar 5.54614 20.36477 2.78723
Ar 8.06236 18.08057 3.67567
Ar 8.51605 20.11084 0.23748
Ar 5.46818 17.07653 6.35374
Ar 5.04973 19.95086 8.79763
Ar 8.15031 17.66548 8.45960
Ar 9.69503 19.94941 6.05359
Ar 4.86791 17.51906 11.36288
Ar 4.86885 18.83660 14.59142
Ar 8.61974 18.38686 14.43254
Ar 8.69495 20.58594 11.58720
Ar 5.97422 17.33487 17.45385
Ar 5.92610 19.76843 20.41424
Ar 8.72450 17.12188 20.06496
Ar 8.04216 19.98340 17.34655
Ar 10.50393 0.07403 22.61943
Ar 11.13387 2.69435 2.74404
Ar 14.30113 22.75637 2.76290
Ar 13.72702 2.06943 22.73401
Ar 11.08224 0.47012 5.88616
Ar 10.89982 2.52390 8.80725
Ar 13.90699 0.40836 7.81194
Ar 14.06368 2.63261 4.79167
Ar 11.40666 0.27850 11.67196
Ar 11.17393 2.94182 14.73954
Ar 15.80541 0.98005 14.86066
Ar 13.91868 2.65621 11.79890
Ar 11.02074 22.27187 17.45818
Ar 11.52030 3.39200 20.39460
Ar 14.06180 0.05480 20.00882
Ar 13.77622 2.69203 17.26120
Ar 11.26596 5.86346 0.29096
Ar 10.82945 9.09681 2.25442
Ar 14.25909 5.68460 2.84669
Ar 13.62147 9.37301 22.63548
Ar 11.06604 5.04333 6.13447
Ar 11.56405 7.59083 8.68555
Ar 13.88736 4.42865 7.89914
Ar 14.53412 8.06855 5.98247
Ar 11.60946 5.00768 11.57136
Ar 11.31853 7.81733 13.90583
Ar 14.39766 5.10094 14.64181
Ar 14.84226 8.24571 11.12274
Ar 10.93261 5.68950 16.99954
Ar 11.44539 8.51547 19.30318
Ar 13.62985 6.18273 20.01588
Ar 14.46223 8.01766 17.04682
Ar 10.88063 12.16824 0.07168
Ar 12.90094 14.23544 2.44925
Ar 14.42461 10.85979 3.28196
Ar 14.79109 15.54598 22.37805
Ar 11.71920 11.30434 5.67940
Ar 12.32884 15.31628 8.31704
Ar 14.32386 11.42469 8.89626
Ar 14.34578 13.74119 5.52417
Ar 12.18339 10.54629 11.93822
Ar 11.43620 14.53845 14.41321
Ar 15.03815 10.45681 14.16341
Ar 13.63999 14.28385 11.68342
Ar 12.09607 10.84649 16.80647
Ar 11.44930 14.84852 20.50466
Ar 13.64909 11.84337 19.98166
Ar 13.53481 14.77003 17.75751
Ar 11.29498 16.97300 0.38748
Ar 11.45436 20.57202 2.63606
Ar 15.24437 16.82196 3.10422
Ar 14.21014 19.23940 0.35096
Ar 11.64098 16.93471 4.27326
Ar 11.53304 20.47683 9.34807
Ar 15.70109 18.22892 8.47650
Ar 13.97585 20.07454 5.63535
Ar 11.17074 17.31683 12.15492
Ar 11.64882 20.01072 14.63042
Ar 14.30421 17.54095 14.60411
Ar 14.94321 21.32433 10.49301
Ar 10.89330 17.43145 17.00881
Ar 10.78938 19.90219 20.25170
Ar 13.31828 17.81512 19.92825
Ar 13.95722 20.24318 17.11171
Ar 16.26264 21.93512 22.44501
Ar 17.11345 2.74561 2.38545
Ar 19.68460 22.30341 2.11072
Ar 18.90806 1.73665 22.06978
Ar 18.13893 0.01660 5.23819
Ar 17.40894 2.65463 7.80737
Ar 20.67090 1.35993 8.24813
Ar 20.14051 3.66616 3.86038
Ar 17.33534 1.23163 11.32316
Ar 17.89181 3.69548 14.38162
Ar 20.03344 0.02717 13.24811
Ar 20.26571 3.37468 11.32559
Ar 16.97091 0.18149 18.53025
Ar 15.74947 3.28693 20.05019
Ar 20.24973 22.09392 19.84700
Ar 19.72240 1.85298 17.11246
Ar 16.30274 6.31721 22.35942
Ar 16.96567 8.48767 2.14086
Ar 19.52971 5.56997 0.77380
Ar 19.71533 8.40518 21.60912
Ar 17.69342 6.07310 5.00350
Ar 17.68513 8.46382 8.44784
Ar 20.10043 5.53009 7.87914
Ar 20.85353 8.07343 4.79133
Ar 16.98385 4.83137 11.32634
Ar 17.48236 7.54317 13.88369
Ar 20.32392 5.98419 15.03141
Ar 19.75441 8.43134 11.12557
Ar 17.36334 5.89158 17.54992
Ar 16.99367 8.92162 19.89668
Ar 21.01132 3.49684 20.26603
Ar 19.50078 8.57533 17.19908
Ar 15.99646 12.09248 0.06501
Ar 17.11227 13.82137 3.01101
Ar 19.71646 11.36452 2.59552
Ar 19.41410 14.13807 22.23286
Ar 17.25138 11.04606 5.96077
Ar 16.67420 14.50167 9.50889
Ar 19.49039 11.28379 8.61886
Ar 19.28993 14.01116 5.70484
Ar 16.87868 11.20079 11.02892
Ar 15.82645 13.80417 14.50971
Ar 18.95282 10.43526 14.38731
Ar 19.31997 13.74926 12.49999
Ar 16.64360 11.16394 17.47546
Ar 16.87749 13.59657 19.86614
Ar 20.37691 11.95504 18.64305
Ar 19.37288 14.03511 16.26069
Ar 17.79541 17.18157 22.69418
Ar 16.78824 20.13286 3.30468
Ar 20.17033 15.82619 2.67574
Ar 19.37299 20.04333 22.52143
Ar 18.56017 17.72619 6.11075
Ar 18.78676 20.64840 8.01432
Ar 20.07246 16.87391 9.34553
Ar 20.80337 19.53277 4.27314
Ar 16.56247 17.51263 11.54295
Ar 16.75508 20.33044 13.53294
Ar 20.09703 17.37561 14.09092
Ar 20.99219 19.82093 11.85001
Ar 16.58061 16.89076 17.17683
Ar 16.76261 19.44960 19.30873
Ar 19.45733 16.68312 19.41272
Ar 19.08196 20.56052 16.78976
256
frame 21
Ar 0.12342 0.88612 0.02317
Ar 22.57544 4.11299 1.45261
Ar 2.49154 22.74958 2.94121
Ar 3.44672 2.37648 0.79968
Ar 22.28332 0.98728 4.34801
Ar 0.67973 3.54486 9.04153
Ar 2.57021 22.78410 8.79860
Ar 3.77762 2.19192 5.72215
Ar 22.66010 0.60367 11.35791
Ar 22.53870 3.25288 14.70625
Ar 3.13297 22.15096 14.56859
Ar 2.64503 2.22026 12.15297
Ar 0.41538 0.15588 17.81633
Ar 1.92361 3.16998 20.91567
Ar 3.30641 22.28705 20.38341
Ar 3.06221 2.43202 16.94267
Ar 0.21322 6.28345 21.68046
Ar 22.46511 8.79272 1.99787
Ar 2.46974 5.41173 3.27152
Ar 2.24658 9.12404 22.74980
Ar 0.15935 4.74143 5.63097
Ar 22.81282 8.61558 9.11812
Ar 3.06515 5.76354 8.02514
Ar 2.14808 8.40428 5.20796
Ar 22.55712 5.89238 12.02557
Ar 22.49356 8.62944 14.46933
Ar 2.86156 5.46832 14.17787
Ar 2.93409 8.19162 11.26888
Ar 0.35481 5.47980 17.54620
Ar 22.37564 8.60288 19.28887
Ar 3.61780 6.25174 19.61372
Ar 3.21409 8.80066 16.65972
Ar 21.95846 11.49447 22.13336
Ar 0.21919 13.64911 3.09354
Ar 3.28204 11.03361 2.79111
Ar 2.87476 13.60603 22.77373
Ar 22.27334 11.48059 6.29745
Ar 22.76018 14.50044 8.73866
Ar 3.41462 11.44294 9.53877
Ar 2.62905 14.18581 6.76819
Ar 22.50906 11.80106 11.35702
Ar 22.13339 13.37918 14.59167
Ar 3.03507 11.39676 13.25862
Ar 2.88683 14.87745 10.72357
Ar 0.57003 11.55684 17.17698
Ar 22.53646 14.54839 19.85181
Ar 2.97708 11.40729 20.05173
Ar 3.19366 14.08380 17.87269
Ar 0.45249 16.16073 0.61921
Ar 22.56722 20.45687 1.25232
Ar 3.40568 16.97745 2.54837
Ar 3.54099 19.42991 22.76999
Ar 22.49486 16.00372 5.58565
Ar 0.00229 21.20219 7.24381
Ar 2.00518 17.42176 8.39864
Ar 2.61523 19.44422 5.01537
Ar 22.81387 16.28434 11.91446
Ar 0.20196 19.66658 15.00059
Ar 2.05932 16.70216 15.21933
Ar 1.89034 19.80272 10.93936
Ar 22.57064 17.44666 17.79955
Ar 22.39899 19.28234 20.56882
Ar 2.90630 16.89823 20.17076
Ar 2.51615 19.59130 17.57456
Ar 6.11982 22.64939 0.31655
Ar 5.74881 3.36328 3.24273
Ar 8.36717 0.34209 3.21766
Ar 7.92813 2.92778 0.09766
Ar 6.24571 21.99296 6.10449
Ar 5.49084 2.43915 8.59322
Ar 8.52550 22.45662 8.76405
Ar 8.04400 3.08854 6.41378
Ar 5.64494 22.52497 11.38238
Ar 5.83691 3.23353 14.16834
Ar 8.65435 22.61099 14.52277
Ar 8.28810 2.43867 11.26131
Ar 5.38532 22.78276 17.19856
Ar 5.38757 3.48346 20.16688
Ar 8.15553 0.34896 19.61724
Ar 8.15842 3.03219 17.37649
Ar 4.80116 5.93295 0.43833
Ar 6.61730 8.70346 1.75044
Ar 9.09767 5.47433 3.01449
Ar 9.11606 8.46510 22.19134
Ar 6.02120 6.68021 5.10335
Ar 6.02062 8.64601 8.95524
Ar 8.61804 5.79018 9.18359
Ar 9.38537 8.14401 5.87067
Ar 5.45498 5.02708 11.36869
Ar 5.85706 8.92810 13.85400
Ar 8.70384 5.42326 14.00299
Ar 9.22917 8.75868 11.05665
Ar 5.22929 5.09214 16.88290
Ar 6.00988 8.48542 20.47816
Ar 8.29458 5.28544 20.37353
Ar 8.36109 8.06809 17.39956
Ar 5.84472 11.52353 22.14715
Ar 5.52530 14.27892 3.77471
Ar 9.01984 11.89126 3.89523
Ar 9.30217 15.10066 2.39088
Ar 6.03231 11.03631 5.85590
Ar 5.97820 14.52174 8.71539
Ar 9.98512 12.94940 9.24346
Ar 9.14439 14.99091 6.05400
Ar 6.51895 11.86604 11.89277
Ar 5.60559 15.12389 14.42987
Ar 9.35844 11.03372 14.15707
Ar 8.34550 15.28299 11.95783
Ar 6.02759 11.21516 16.80752
Ar 5.90223 14.53383 20.41253
Ar 9.21807 11.15871 19.32057
Ar 9.47986 14.29656 17.39949
Ar 6.18542 17.20988 22.79085
Ar 5.44456 20.26491 2.87293
Ar 7.99409 18.10667 3.72482
Ar 8.48843 20.13616 0.28225
Ar 5.39497 17.09077 6.35379
Ar 5.01672 20.05951 8.74456
Ar 8.14777 17.69771 8.44282
Ar 9.62392 19.91242 6.08806
Ar 4.96704 17.54337 11.39332
Ar 4.97810 18.91100 14.56811
Ar 8.52702 18.40791 14.51799
Ar 8.66426 20.52683 11.50816
Ar 5.98589 17.30694 17.43947
Ar 5.92698 19.87411 20.53479
Ar 8.68832 17.16068 20.05875
Ar 8.12768 20.07919 17.35638
Ar 10.42883 0.00998 22.69604
Ar 11.18735 2.68472 2.76723
Ar 14.34551 22.69424 2.72855
Ar 13.67576 2.07652 22.77041
Ar 10.98523 0.45981 5.76544
Ar 10.96251 2.45530 8.80727
Ar 13.91938 0.30503 7.76392
Ar 14.08059 2.64017 4.71387
Ar 11.40012 0.31297 11.67881
Ar 11.04503 2.80655 14.74686
Ar 15.85464 1.00331 14.76668
Ar 13.96124 2.64596 11.80566
Ar 11.05578 22.29307 17.44115
Ar 11.47138 3.44445 20.55140
Ar 14.01858 22.76372 20.06863
Ar 13.71710 2.68021 17.28314
Ar 11.33914 5.89158 0.30577
Ar 10.92540 9.07946 2.27301
Ar 14.24801 5.79242 2.77663
Ar 13.51197 9.31987 22.68588
Ar 11.00678 5.09264 6.21841
Ar 11.60840 7.61666 8.70749
Ar 13.90369 4.53116 7.94021
Ar 14.53409 8.01218 5.99791
Ar 11.67270 5.01309 11.47644
Ar 11.27296 7.81888 13.97447
Ar 14.44684 5.09706 14.67718
Ar 14.94504 8.14783 11.06311
Ar 10.80502 5.67015 17.06589
Ar 11.41025 8.58795 19.23558
Ar 13.53541 6.11852 20.11846
Ar 14.45712 8.00643 17.04785
Ar 10.89119 12.25683 0.12508
Ar 12.94407 14.13782 2.40011
Ar 14.37670 10.87635 3.42027
Ar 14.72611 15.58478 22.30989
Ar 11.70607 11.25243 5.73223
Ar 12.40239 15.38277 8.30803
Ar 14.26449 11.40586 8.84348
Ar 14.50614 13.80827 5.58129
Ar 12.09974 10.63093 11.92987
Ar 11.47609 14.47185 14.39650
Ar 14.96660 10.45872 14.06612
Ar 13.63696 14.32802 11.68345
Ar 12.03966 10.83181 16.69809
Ar 11.51959 14.77230 20.53413
Ar 13.67825 11.71814 19.96039
Ar 13.60404 14.84440 17.79434
Ar 11.25648 16.98247 0.38800
Ar 11.54244 20.63626 2.67732
Ar 15.30440 16.87841 3.09349
Ar 14.28131 19.34387 0.39195
Ar 11.65973 16.91757 4.28245
Ar 11.51570 20.49214 9.21582
Ar 15.61099 18.29668 8.34914
Ar 14.09909 20.12107 5.56340
Ar 11.17080 17.20772 12.10053
Ar 11.72356 19.99437 14.66758
Ar 14.38397 17.51564 14.68821
Ar 15.00121 21.32009 10.56216
Ar 10.99645 17.44403 17.08963
Ar 10.75992 20.06607 20.33662
Ar 13.30271 17.83770 19.83497
Ar 14.01519 20.22054 16.99194
Ar 16.23635 21.95591 22.46256
Ar 17.07272 2.70426 2.41425
Ar 19.68032 22.35719 2.09558
Ar 18.95058 1.69845 22.01986
Ar 18.23358 0.09089 5.25579
Ar 17.38181 2.59506 7.83096
Ar 20.72963 1.53214 8.13412
Ar 20.19254 3.71614 3.77606
Ar 17.35337 1.20770 11.22852
Ar 17.93539 3.80708 14.45173
Ar 20.02394 0.00684 13.32689
Ar 20.23396 3.34997 11.34833
Ar 16.87682 0.29167 18.53476
Ar 15.77370 3.20510 20.11173
Ar 20.31218 22.09818 19.84242
Ar 19.61996 1.82125 17.12981
Ar 16.23917 6.20706 22.26836
Ar 16.97842 8.51453 2.06115
Ar 19.50001 5.59420 0.72491
Ar 19.68683 8.35084 21.66010
Ar 17.70141 6.00316 5.05400
Ar 17.59987 8.33112 8.41526
Ar 20.10929 5.56423 7.72769
Ar 20.81710 8.06667 4.82345
Ar 16.94637 4.90657 11.35511
Ar 17.46994 7.36218 13.73674
Ar 20.36265 6.00021 15.02549
Ar 19.83205 8.46893 11.10589
Ar 17.35241 5.80591 17.61334
Ar 16.90464 8.82533 19.93188
Ar 21.10694 3.33652 20.24280
Ar 19.49195 8.64648 17.13791
Ar 15.99006 12.10631 0.08133
Ar 17.10113 13.86473 3.02537
Ar 19.70093 11.34369 2.59163
Ar 19.50119 14.05634 22.20398
Ar 17.12179 10.91065 5.96506
Ar 16.69858 14.52271 9.51236
Ar 19.50942 11.26345 8.60479
Ar 19.24554 14.01658 5.59688
Ar 16.93991 11.16937 10.99747
Ar 15.76253 13.82614 14.56258
Ar 18.88817 10.50878 14.45446
Ar 19.29695 13.69218 12.52352
Ar 16.64424 11.19714 17.37408
Ar 16.82089 13.56281 19.95286
Ar 20.31428 12.00407 18.63472
Ar 19.27581 14.03925 16.27055
Ar 17.77961 17.03197 22.74089
Ar 16.76339 20.22545 3.37965
Ar 20.12181 15.72914 2.64409
Ar 19.25591 20.04499 22.59939
Ar 18.67822 17.77558 6.13503
Ar 18.69869 20.72317 8.03548
Ar 20.04078 16.86636 9.41446
Ar 20.83320 19.44151 4.29925
Ar 16.56521 17.48076 11.53381
Ar 16.79620 20.48950 13.56434
Ar 20.16684 17.42318 14.04711
Ar 21.02094 19.78589 11.84016
Ar 16.52595 16.85705 17.14886
Ar 16.69601 19.47999 19.31291
Ar 19.42999 16.68600 19.43999
Ar 19.11368 20.52516 16.82511
256
frame 22
Ar 0.08831 0.85762 22.76754
Ar 22.64552 3.98688 1.45588
Ar 2.47132 22.78409 3.00363
Ar 3.50756 2.48391 0.79430
Ar 22.21983 0.99457 4.29353
Ar 0.73898 3.52759 9.01553
Ar 2.59783 0.02731 8.76868
Ar 3.80896 2.14300 5.74951
Ar 22.71386 0.44694 11.28641
Ar 22.52983 3.25356 14.69277
Ar 3.02832 22.20246 14.56423
Ar 2.62902 2.21172 12.07327
Ar 0.45091 0.19840 17.69004
Ar 1.92458 3.09555 20.89614
Ar 3.26677 22.30747 20.37563
Ar 3.05046 2.51754 17.04083
Ar 0.23188 6.35872 21.68142
Ar 22.41856 8.65428 2.03158
Ar 2.35572 5.45556 3.18419
Ar 2.31313 9.06967 0.01930
Ar 0.20163 4.72630 5.75059
Ar 22.76039 8.53667 8.99314
Ar 3.08212 5.76855 8.01653
Ar 2.11903 8.35880 5.26183
Ar 22.66475 5.94228 12.15761
Ar 22.53423 8.59828 14.53243
Ar 2.80872 5.47208 14.15791
Ar 2.78229 8.31525 11.34430
Ar 0.32787 5.51479 17.54645
Ar 22.32190 8.66446 19.33748
Ar 3.68383 6.27877 19.65340
Ar 3.18656 8.85167 16.64066
Ar 21.80407 11.47514 22.11679
Ar 0.37641 13.69887 3.15402
Ar 3.27656 10.95575 2.84924
Ar 2.93323 13.60579 22.64676
Ar 22.31721 11.40250 6.27266
Ar 22.59063 14.52894 8.83154
Ar 3.39973 11.32315 9.61769
Ar 2.72480 14.15868 6.78112
Ar 22.49900 11.78354 11.46659
Ar 22.17310 13.41577 14.58150
Ar 3.05658 11.38038 13.23160
Ar 2.89098 14.92427 10.69933
Ar 0.58610 11.46141 17.20045
Ar 22.51891 14.60170 19.75206
Ar 2.94923 11.35226 19.94086
Ar 3.28039 14.17538 17.86863
Ar 0.50162 16.21084 0.52052
Ar 22.53418 20.50870 1.22326
Ar 3.41683 16.93214 2.60131
Ar 3.57880 19.47024 0.02432
Ar 22.46515 15.98368 5.54234
Ar 0.00883 21.26010 7.13930
Ar 2.02500 17.46117 8.42207
Ar 2.55386 19.47511 5.03215
Ar 22.69854 16.39674 11.94063
Ar 0.11534 19.72344 14.82568
Ar 2.07992 16.65466 15.09928
Ar 1.89112 19.74718 10.91860
Ar 22.56065 17.42432 17.71886
Ar 22.36160 19.26012 20.73127
Ar 2.98305 16.91488 20.05619
Ar 2.53053 19.55802 17.60689
Ar 6.16315 22.64004 0.44257
Ar 5.74934 3.31690 3.14843
Ar 8.49080 0.40016 3.34863
Ar 7.95402 2.80641 0.13497
Ar 6.24999 21.93281 6.14768
Ar 5.49729 2.44416 8.66783
Ar 8.50963 22.48408 8.64847
Ar 8.07159 3.04703 6.50547
Ar 5.58805 22.56455 11.46169
Ar 5.88588 3.26853 14.10568
Ar 8.73628 22.64929 14.63688
Ar 8.25689 2.37339 11.14060
Ar 5.27613 22.56893 17.17110
Ar 5.29684 3.33973 20.21735
Ar 8.15930 0.35703 19.65698
Ar 8.12042 3.07400 17.49026
Ar 4.78973 5.86482 0.44918
Ar 6.68702 8.61864 1.67899
Ar 9.16409 5.55933 3.09272
Ar 9.16112 8.46921 22.10607
Ar 5.99300 6.64609 5.08528
Ar 6.04398 8.68657 8.91217
Ar 8.72139 5.81907 9.10254
Ar 9.48861 8.10401 5.95792
Ar 5.38244 4.99343 11.44269
Ar 5.83819 8.95822 13.68611
Ar 8.71717 5.50383 13.91474
Ar 9.16091 8.76253 10.98793
Ar 5.32622 5.23513 16.95172
Ar 6.18599 8.49097 20.49815
Ar 8.35791 5.38891 20.27092
Ar 8.36443 8.12732 17.26863
Ar 6.01125 11.42435 22.19199
Ar 5.47617 14.30959 3.87141
Ar 9.03771 11.80046 3.85056
Ar 9.23147 15.07870 2.39079
Ar 5.96381 11.09216 5.98854
Ar 5.88409 14.50760 8.64070
Ar 10.06072 13.04468 9.16068
Ar 9.17505 15.00443 6.07318
Ar 6.61651 11.91555 11.93728
Ar 5.59272 14.93438 14.51364
Ar 9.33708 10.99170 14.20900
Ar 8.31005 15.34013 11.94666
Ar 5.98164 11.24107 16.72794
Ar 5.82035 14.70405 20.36072
Ar 9.15907 11.11731 19.26363
Ar 9.48983 14.46363 17.24949
Ar 6.30054 17.20075 0.10526
Ar 5.33625 20.17427 2.96206
Ar 7.92278 18.11099 3.75895
Ar 8.45283 20.10974 0.34859
Ar 5.30322 17.11372 6.33190
Ar 4.98226 20.15330 8.69572
Ar 8.15442 17.73004 8.45320
Ar 9.57018 19.89548 6.13030
Ar 5.08558 17.57138 11.40857
Ar 5.07296 19.01437 14.54540
Ar 8.43269 18.39219 14.56289
Ar 8.63525 20.43250 11.45632
Ar 5.98848 17.25197 17.45224
Ar 5.97016 19.99169 20.59556
Ar 8.64875 17.19535 20.05205
Ar 8.21627 20.20875 17.40884
Ar 10.37886 22.81446 22.77050
Ar 11.23888 2.66543 2.77345
Ar 14.39537 22.62965 2.68452
Ar 13.63674 2.09227 0.02547
Ar 10.88645 0.44957 5.63865
Ar 11.02820 2.39323 8.80567
Ar 13.94119 0.21696 7.71289
Ar 14.11017 2.66705 4.66778
Ar 11.37996 0.33316 11.69917
Ar 10.92183 2.65933 14.74548
Ar 15.89495 1.01581 14.67552
Ar 14.05120 2.61134 11.81457
Ar 11.09411 22.33315 17.42474
Ar 11.38655 3.46638 20.67987
Ar 13.88552 22.62770 20.11280
Ar 13.64719 2.66366 17.30952
Ar 11.42888 5.91460 0.32195
Ar 11.02332 9.06290 2.32631
Ar 14.23710 5.90371 2.70427
Ar 13.41137 9.25362 22.72966
Ar 10.94555 5.12488 6.27651
Ar 11.68739 7.65569 8.73084
Ar 13.95134 4.63272 8.00356
Ar 14.52971 7.95620 6.01552
Ar 11.69966 5.05505 11.37781
Ar 11.24784 7.82173 14.05917
Ar 14.49186 5.09932 14.70392
Ar 15.03481 8.04043 11.00143
Ar 10.70496 5.63219 17.13871
Ar 11.38081 8.64865 19.18676
Ar 13.46421 6.05369 20.20980
Ar 14.45080 7.99969 17.04342
Ar 10.89376 12.32750 0.18039
Ar 12.98806 14.03254 2.34005
Ar 14.33560 10.88356 3.54152
Ar 14.63784 15.60898 22.24097
Ar 11.72362 11.19148 5.82414
Ar 12.48407 15.46169 8.29321
Ar 14.18426 11.38909 8.76975
Ar 14.67196 13.88217 5.66071
Ar 12.03267 10.73625 11.90233
Ar 11.51110 14.39700 14.39869
Ar 14.89608 10.43969 13.97617
Ar 13.64411 14.36739 11.66242
Ar 11.98906 10.83861 16.56796
Ar 11.57405 14.68342 20.56003
Ar 13.70130 11.58986 19.93432
Ar 13.68405 14.90386 17.80441
Ar 11.23539 17.03235 0.38058
Ar 11.60874 20.68470 2.72379
Ar 15.35856 16.94866 3.08537
Ar 14.33054 19.41778 0.44051
Ar 11.69237 16.92457 4.30405
Ar 11.51324 20.49446 9.07530
Ar 15.51353 18.36503 8.19707
Ar 14.19445 20.16653 5.50073
Ar 11.19605 17.12611 12.03567
Ar 11.75889 19.99245 14.64649
Ar 14.43297 17.48071 14.72907
Ar 15.05532 21.30610 10.63893
Ar 11.10473 17.46790 17.17009
Ar 10.72230 20.25011 20.41685
Ar 13.31677 17.85794 19.74296
Ar 14.11944 20.21091 16.91876
Ar 16.25598 22.00663 22.49393
Ar 17.01967 2.65898 2.43421
Ar 19.67671 22.45556 2.10525
Ar 18.93868 1.63843 22.01549
Ar 18.32666 0.18227 5.27900
Ar 17.33587 2.54950 7.85113
Ar 20.79155 1.68979 8.01034
Ar 20.20588 3.76455 3.71939
Ar 17.36542 1.17711 11.13382
Ar 17.96581 3.88022 14.53173
Ar 19.97871 22.81499 13.45221
Ar 20.20128 3.32448 11.37132
Ar 16.82134 0.38468 18.51049
Ar 15.81418 3.14122 20.18516
Ar 20.37627 22.10931 19.83495
Ar 19.53991 1.80045 17.13185
Ar 16.17708 6.08487 22.18884
Ar 16.99721 8.55013 1.98943
Ar 19.46068 5.58998 0.69675
Ar 19.69846 8.32655 21.72303
Ar 17.69101 5.93635 5.09966
Ar 17.49222 8.17238 8.37109
Ar 20.12183 5.59419 7.59201
Ar 20.76179 8.05227 4.89326
Ar 16.89155 4.98017 11.33610
Ar 17.42966 7.20170 13.60407
Ar 20.43075 6.01596 15.03250
Ar 19.91539 8.50578 11.11094
Ar 17.33624 5.70556 17.67877
Ar 16.76752 8.73620 19.95068
Ar 21.24898 3.21264 20.18092
Ar 19.48762 8.71122 17.11776
Ar 15.97879 12.09959 0.12364
Ar 17.06135 13.89343 3.00788
Ar 19.68925 11.32164 2.58820
Ar 19.59793 13.96466 22.18227
Ar 16.98394 10.78055 5.95254
Ar 16.72677 14.53850 9.50157
Ar 19.55525 11.26650 8.59551
Ar 19.22676 14.01391 5.53793
Ar 17.01518 11.13586 10.99722
Ar 15.70958 13.86613 14.62608
Ar 18.82645 10.62627 14.48299
Ar 19.26131 13.64466 12.53019
Ar 16.63892 11.23581 17.24685
Ar 16.77193 13.56090 20.00769
Ar 20.23560 12.01361 18.67933
Ar 19.12602 14.08890 16.26352
Ar 17.75497 16.87722 22.80105
Ar 16.77369 20.30244 3.43205
Ar 20.07658 15.65489 2.60187
Ar 19.14761 20.03379 22.64321
Ar 18.75418 17.77934 6.17193
Ar 18.61360 20.80712 8.07833
Ar 20.00204 16.86151 9.48986
Ar 20.89817 19.37946 4.29875
Ar 16.57874 17.44154 11.55657
Ar 16.84762 20.64732 13.61056
Ar 20.21118 17.43817 14.04211
Ar 21.06043 19.76949 11.78895
Ar 16.50576 16.79342 17.13226
Ar 16.63357 19.53049 19.35888
Ar 19.39887 16.68828 19.46899
Ar 19.15121 20.48532 16.84255
256
frame 23
Ar 0.04039 0.81507 22.68248
Ar 22.73009 3.85126 1.43250
Ar 2.46359 22.79694 3.06488
Ar 3.58272 2.57061 0.82065
Ar 22.15792 0.99467 4.25415
Ar 0.79341 3.49374 9.02369
Ar 2.64131 0.11424 8.74836
Ar 3.80600 2.08799 5.76687
Ar 22.74616 0.26877 11.19586
Ar 22.53074 3.22483 14.67523
Ar 2.90617 22.25360 14.54261
Ar 2.64972 2.22940 12.00272
Ar 0.47881 0.23232 17.56350
Ar 1.88471 3.05107 20.79283
Ar 3.21579 22.34196 20.36907
Ar 3.03014 2.61620 17.13597
Ar 0.25523 6.41151 21.69625
Ar 22.36758 8.51530 2.04802
Ar 2.28377 5.50917 3.08851
Ar 2.41023 9.01485 0.08313
Ar 0.24149 4.70898 5.87026
Ar 22.71520 8.45683 8.85335
Ar 3.12783 5.79695 8.00021
Ar 2.08412 8.31946 5.32628
Ar 22.77356 5.99028 12.26352
Ar 22.60057 8.61040 14.59839
Ar 2.75806 5.48021 14.14755
Ar 2.63098 8.41244 11.42744
Ar 0.31019 5.54920 17.55200
Ar 22.27905 8.75636 19.36179
Ar 3.68647 6.33450 19.71813
Ar 3.15567 8.89182 16.62091
Ar 21.69167 11.41733 22.10038
Ar 0.54534 13.71400 3.19502
Ar 3.27802 10.89058 2.91630
Ar 2.99209 13.61291 22.53246
Ar 22.36937 11.32768 6.23969
Ar 22.41212 14.53293 8.92556
Ar 3.38625 11.22029 9.67708
Ar 2.82716 14.12394 6.78185
Ar 22.48965 11.75366 11.56030
Ar 22.22907 13.46915 14.57068
Ar 3.07259 11.37724 13.22370
Ar 2.89871 14.94097 10.68894
Ar 0.61321 11.35972 17.22227
Ar 22.51496 14.64052 19.66822
Ar 2.92427 11.27174 19.82859
Ar 3.36269 14.26757 17.83432
Ar 0.53815 16.27473 0.40867
Ar 22.52083 20.53687 1.21286
Ar 3.42581 16.88074 2.65652
Ar 3.55728 19.51673 0.11577
Ar 22.42822 15.99719 5.51620
Ar 22.81645 21.30638 7.02751
Ar 2.04470 17.49652 8.40947
Ar 2.47905 19.50827 5.06460
Ar 22.60223 16.50533 11.96366
Ar 0.03165 19.79624 14.65218
Ar 2.11234 16.59617 14.97086
Ar 1.89191 19.71611 10.92906
Ar 22.53472 17.39909 17.61740
Ar 22.33419 19.23022 20.89543
Ar 3.04933 16.94568 19.95949
Ar 2.56644 19.54477 17.63954
Ar 6.17633 22.64356 0.56188
Ar 5.79593 3.28701 3.06883
Ar 8.56423 0.44993 3.43978
Ar 7.99114 2.70356 0.17348
Ar 6.24852 21.89291 6.13990
Ar 5.49698 2.44558 8.78892
Ar 8.50069 22.53121 8.53509
Ar 8.10784 2.99970 6.57293
Ar 5.52541 22.60718 11.54608
Ar 5.94561 3.23284 14.09932
Ar 8.80190 22.68045 14.74223
Ar 8.22574 2.31718 11.03433
Ar 5.19234 22.34681 17.16023
Ar 5.24198 3.15840 20.27043
Ar 8.15967 0.35269 19.72018
Ar 8.08605 3.11238 17.58286
Ar 4.77945 5.79520 0.44692
Ar 6.74764 8.54054 1.63544
Ar 9.21016 5.65300 3.17211
Ar 9.24503 8.48608 22.01722
Ar 5.96138 6.61134 5.06923
Ar 6.06441 8.72072 8.87035
Ar 8.80052 5.82156 9.02082
Ar 9.56108 8.11007 6.03068
Ar 5.29868 5.01088 11.44499
Ar 5.82230 8.96515 13.52502
Ar 8.70918 5.57671 13.82040
Ar 9.07755 8.77823 10.93795
Ar 5.44875 5.39970 16.99677
Ar 6.34666 8.48574 20.48795
Ar 8.41989 5.50640 20.16693
Ar 8.33818 8.20002 17.12688
Ar 6.17984 11.35215 22.25487
Ar 5.43823 14.32885 3.97051
Ar 9.02545 11.70888 3.78757
Ar 9.14188 15.03785 2.38509
Ar 5.89145 11.14935 6.12129
Ar 5.80630 14.48072 8.57761
Ar 10.12697 13.12573 9.08753
Ar 9.19581 15.01405 6.09744
Ar 6.71236 11.98020 11.96539
Ar 5.57643 14.74290 14.59646
Ar 9.29413 10.95408 14.26824
Ar 8.24858 15.38226 11.93092
Ar 5.94083 11.27448 16.65081
Ar 5.75220 14.86370 20.30692
Ar 9.06770 11.11861 19.21352
Ar 9.47227 14.60413 17.11617
Ar 6.42214 17.17580 0.26144
Ar 5.22778 20.10394 3.05360
Ar 7.85667 18.08722 3.77898
Ar 8.41819 20.03040 0.44013
Ar 5.20027 17.15023 6.29465
Ar 4.94099 20.21646 8.67161
Ar 8.15946 17.75500 8.49041
Ar 9.53445 19.90052 6.16718
Ar 5.21856 17.59940 11.40481
Ar 5.13443 19.14452 14.53245
Ar 8.36483 18.34349 14.57906
Ar 8.60645 20.32046 11.42083
Ar 5.98683 17.18695 17.48017
Ar 6.04980 20.11097 20.60358
Ar 8.61539 17.23081 20.04619
Ar 8.29861 20.34527 17.49329
Ar 10.35586 0.02294 0.02613
Ar 11.27984 2.64838 2.75823
Ar 14.44724 22.58727 2.63739
Ar 13.61457 2.11129 0.13176
Ar 10.83105 0.43903 5.55242
Ar 11.10014 2.33899 8.79584
Ar 13.96816 0.14535 7.65977
Ar 14.15425 2.70852 4.65547
Ar 11.34924 0.33415 11.73058
Ar 10.80964 2.51960 14.73963
Ar 15.92395 1.03312 14.59547
Ar 14.16531 2.56584 11.82315
Ar 11.14493 22.39149 17.41118
Ar 11.26093 3.44216 20.77730
Ar 13.69773 22.47964 20.14394
Ar 13.57156 2.64287 17.34142
Ar 11.52195 5.93838 0.35173
Ar 11.10581 9.04366 2.41540
Ar 14.22903 6.01600 2.63437
Ar 13.33410 9.17983 22.75400
Ar 10.90846 5.11553 6.31542
Ar 11.80413 7.71310 8.75911
Ar 14.02066 4.73157 8.08145
Ar 14.51673 7.89877 6.03357
Ar 11.70620 5.11695 11.28206
Ar 11.25014 7.83632 14.15175
Ar 14.52891 5.10400 14.72280
Ar 15.09739 7.93814 10.93867
Ar 10.63614 5.57368 17.21372
Ar 11.37750 8.67700 19.15444
Ar 13.40406 6.00804 20.26530
Ar 14.44214 7.99683 17.03587
Ar 10.87811 12.36582 0.23557
Ar 13.04206 13.93900 2.28869
Ar 14.30362 10.87865 3.63558
Ar 14.53300 15.62163 22.17652
Ar 11.75610 11.12786 5.95049
Ar 12.57468 15.55501 8.27197
Ar 14.09794 11.37297 8.68895
Ar 14.83416 13.96067 5.75597
Ar 11.97519 10.85282 11.85711
Ar 11.54723 14.31431 14.41073
Ar 14.83138 10.40544 13.89528
Ar 13.66539 14.39983 11.62131
Ar 11.95214 10.86398 16.42728
Ar 11.60985 14.59483 20.57102
Ar 13.71953 11.46092 19.90173
Ar 13.76210 14.93379 17.79349
Ar 11.22609 17.11184 0.36763
Ar 11.64206 20.71061 2.77558
Ar 15.40258 17.02884 3.07983
Ar 14.35248 19.45275 0.49403
Ar 11.73635 16.94752 4.32983
Ar 11.52691 20.48962 8.93941
Ar 15.41983 18.42281 8.05167
Ar 14.23817 20.21086 5.45288
Ar 11.24655 17.07583 11.96511
Ar 11.74947 19.99857 14.57151
Ar 14.43631 17.44075 14.70761
Ar 15.09634 21.28249 10.71193
Ar 11.20557 17.51596 17.22992
Ar 10.68830 20.42567 20.48176
Ar 13.35421 17.89295 19.67637
Ar 14.26310 20.22156 16.88890
Ar 16.31417 22.09816 22.52597
Ar 16.96243 2.61144 2.44358
Ar 19.67177 22.58126 2.12637
Ar 18.89118 1.57795 22.03931
Ar 18.41791 0.28756 5.30704
Ar 17.27306 2.52137 7.86396
Ar 20.84877 1.83088 7.87600
Ar 20.18180 3.81476 3.69604
Ar 17.37839 1.13937 11.04770
Ar 17.97603 3.90120 14.60980
Ar 19.92062 22.80625 13.60225
Ar 20.17913 3.30467 11.39627
Ar 16.77407 0.43665 18.46797
Ar 15.85617 3.09796 20.27079
Ar 20.44191 22.12353 19.82522
Ar 19.49495 1.79450 17.11448
Ar 16.13384 5.95817 22.14342
Ar 17.01843 8.59001 1.92134
Ar 19.41975 5.54027 0.69735
Ar 19.72584 8.34857 21.77730
Ar 17.65289 5.87380 5.13278
Ar 17.38502 8.00234 8.32404
Ar 20.13865 5.61707 7.48584
Ar 20.69003 8.03556 4.99560
Ar 16.82208 4.99706 11.24132
Ar 17.39019 7.12365 13.52984
Ar 20.51191 6.03659 15.05560
Ar 19.99348 8.54120 11.13476
Ar 17.31816 5.59990 17.74697
Ar 16.60658 8.66369 19.95402
Ar 21.41190 3.11242 20.09334
Ar 19.48335 8.75805 17.13676
Ar 15.95767 12.06870 0.19146
Ar 16.99148 13.90384 2.95462
Ar 19.68059 11.29981 2.58579
Ar 19.67680 13.89215 22.16382
Ar 16.85439 10.66097 5.93469
Ar 16.75770 14.54529 9.47583
Ar 19.61567 11.28017 8.58250
Ar 19.23266 13.99714 5.53672
Ar 17.08657 11.09838 11.01531
Ar 15.66288 13.91537 14.69430
Ar 18.76506 10.76510 14.46659
Ar 19.21838 13.61366 12.52030
Ar 16.62280 11.27608 17.12014
Ar 16.73409 13.58627 20.02385
Ar 20.14727 11.99705 18.75722
Ar 18.95211 14.16790 16.24254
Ar 17.72904 16.72830 0.04745
Ar 16.85006 20.35829 3.45106
Ar 20.04941 15.60461 2.54647
Ar 19.04913 20.00453 22.66212
Ar 18.78407 17.74107 6.22929
Ar 18.52958 20.89558 8.13949
Ar 19.94757 16.86459 9.57077
Ar 21.00141 19.35026 4.26506
Ar 16.59682 17.40790 11.59539
Ar 16.91226 20.78223 13.66786
Ar 20.21366 17.42438 14.08610
Ar 21.09999 19.77996 11.69296
Ar 16.54530 16.71698 17.15254
Ar 16.58097 19.59110 19.43611
Ar 19.36495 16.69136 19.49888
Ar 19.19131 20.44172 16.84585
256
frame 24
Ar 22.80799 0.75631 22.58642
Ar 22.80729 3.71065 1.38403
Ar 2.46825 22.79402 3.11736
Ar 3.61951 2.61729 0.82932
Ar 22.10542 0.99284 4.23316
Ar 0.85317 3.44716 9.07631
Ar 2.68896 0.21091 8.73273
Ar 3.78495 2.03476 5.77754
Ar 22.75848 0.08206 11.09940
Ar 22.54129 3.16612 14.65610
Ar 2.76897 22.30631 14.50481
Ar 2.69213 2.26580 11.94090
Ar 0.49567 0.25587 17.43782
Ar 1.84225 3.03033 20.65118
Ar 3.15609 22.38561 20.36506
Ar 3.01650 2.72707 17.22561
Ar 0.28111 6.43673 21.72408
Ar 22.31640 8.37514 2.04879
Ar 2.25071 5.58031 3.00087
Ar 2.52798 8.95890 0.12264
Ar 0.28764 4.69173 5.96252
Ar 22.67857 8.37458 8.70049
Ar 3.19863 5.84403 7.98036
Ar 2.04307 8.28537 5.40003
Ar 0.03834 6.03050 12.32581
Ar 22.69428 8.67157 14.66849
Ar 2.72992 5.48819 14.16122
Ar 2.47456 8.46499 11.51994
Ar 0.30386 5.58388 17.56450
Ar 22.24904 8.86584 19.36873
Ar 3.64402 6.40242 19.80468
Ar 3.12742 8.91533 16.59845
Ar 21.65025 11.29263 22.08641
Ar 0.72544 13.70207 3.21339
Ar 3.28736 10.83982 2.99487
Ar 3.05032 13.62447 22.42889
Ar 22.42963 11.25744 6.19842
Ar 22.24562 14.50948 9.00896
Ar 3.37883 11.15023 9.70437
Ar 2.91031 14.08312 6.77098
Ar 22.48090 11.70748 11.63251
Ar 22.29020 13.54112 14.57415
Ar 3.08517 11.39763 13.24464
Ar 2.90255 14.93581 10.69467
Ar 0.63066 11.27097 17.22745
Ar 22.52325 14.65823 19.60287
Ar 2.91332 11.17323 19.72716
Ar 3.43197 14.34155 17.76281
Ar 0.56561 16.34567 0.29050
Ar 22.52344 20.54635 1.23775
Ar 3.42579 16.82878 2.71042
Ar 3.49714 19.56349 0.19587
Ar 22.38615 16.03942 5.51290
Ar 22.78361 21.34971 6.91826
Ar 2.06113 17.51888 8.35792
Ar 2.38684 19.53807 5.11209
Ar 22.54962 16.59694 11.97181
Ar 22.79000 19.87899 14.50035
Ar 2.15278 16.53550 14.83777
Ar 1.89647 19.71235 10.97362
Ar 22.49632 17.38667 17.49858
Ar 22.31448 19.18065 21.03200
Ar 3.08874 17.00414 19.89328
Ar 2.61239 19.55310 17.66019
Ar 6.15709 22.64808 0.67905
Ar 5.90274 3.27594 3.03918
Ar 8.52369 0.49047 3.43664
Ar 8.04027 2.63596 0.20519
Ar 6.23796 21.87586 6.06504
Ar 5.48133 2.44552 8.93022
Ar 8.50806 22.58892 8.44487
Ar 8.14328 2.94405 6.61955
Ar 5.46072 22.64694 11.63424
Ar 6.01339 3.14295 14.14581
Ar 8.82529 22.67691 14.83016
Ar 8.20312 2.27392 10.95044
Ar 5.12648 22.12577 17.16455
Ar 5.22878 2.96304 20.32004
Ar 8.15649 0.34480 19.80586
Ar 8.05228 3.13470 17.65236
Ar 4.77772 5.74069 0.42918
Ar 6.80326 8.46392 1.61774
Ar 9.24065 5.74971 3.24557
Ar 9.38835 8.51861 21.95353
Ar 5.92750 6.57635 5.05521
Ar 6.08012 8.74417 8.83066
Ar 8.85051 5.80393 8.94839
Ar 9.59783 8.16946 6.08786
Ar 5.20548 5.07377 11.38965
Ar 5.80991 8.94742 13.37258
Ar 8.68012 5.63730 13.72062
Ar 8.99036 8.80514 10.90822
Ar 5.58578 5.57660 17.01541
Ar 6.46175 8.46532 20.43197
Ar 8.47140 5.62899 20.07053
Ar 8.29264 8.28042 16.97430
Ar 6.34550 11.31874 22.33140
Ar 5.41639 14.33074 4.07140
Ar 8.99516 11.61637 3.71946
Ar 9.04541 14.98847 2.37241
Ar 5.81623 11.21176 6.25030
Ar 5.75855 14.44521 8.53002
Ar 10.18576 13.19177 9.02748
Ar 9.20627 15.02232 6.12129
Ar 6.80269 12.05936 11.97531
Ar 5.55892 14.55129 14.67713
Ar 9.22182 10.91968 14.32513
Ar 8.16919 15.41429 11.91240
Ar 5.90510 11.31441 16.57421
Ar 5.71884 14.99723 20.26904
Ar 8.95024 11.15798 19.16808
Ar 9.41738 14.71681 17.00633
Ar 6.53491 17.13346 0.42638
Ar 5.12951 20.05948 3.14717
Ar 7.80270 18.03668 3.79123
Ar 8.40050 19.92494 0.55393
Ar 5.09355 17.20224 6.24979
Ar 4.89025 20.24206 8.68328
Ar 8.15591 17.76741 8.55155
Ar 9.50930 19.92191 6.18068
Ar 5.35887 17.62623 11.38375
Ar 5.14737 19.30100 14.53208
Ar 8.34194 18.26749 14.58499
Ar 8.57715 20.20289 11.39154
Ar 5.98291 17.12547 17.50656
Ar 6.14441 20.22425 20.57993
Ar 8.59406 17.27063 20.04306
Ar 8.37005 20.46134 17.59018
Ar 10.35400 0.09511 0.12112
Ar 11.30432 2.64359 2.72627
Ar 14.49594 22.57777 2.59744
Ar 13.61099 2.13503 0.24200
Ar 10.88339 0.42663 5.56782
Ar 11.18038 2.29339 8.77675
Ar 14.00095 0.09370 7.60992
Ar 14.20849 2.76037 4.67589
Ar 11.31271 0.31578 11.76987
Ar 10.72742 2.42270 14.73246
Ar 15.93658 1.07169 14.53729
Ar 14.27632 2.52035 11.82629
Ar 11.21628 22.46627 17.40155
Ar 11.10363 3.37018 20.84950
Ar 13.49806 22.33172 20.17127
Ar 13.49415 2.61999 17.37927
Ar 11.60118 5.96108 0.40085
Ar 11.16389 9.01894 2.54291
Ar 14.23030 6.12820 2.57470
Ar 13.28995 9.10409 22.74819
Ar 10.91720 5.05661 6.33629
Ar 11.94927 7.79094 8.79208
Ar 14.10446 4.82588 8.16923
Ar 14.48848 7.83729 6.04799
Ar 11.70640 5.18247 11.19619
Ar 11.28190 7.86511 14.24838
Ar 14.55460 5.10758 14.73514
Ar 15.11449 7.86027 10.87874
Ar 10.59867 5.50424 17.28403
Ar 11.39860 8.67729 19.12618
Ar 13.34552 5.98102 20.26915
Ar 14.42976 7.99772 17.02416
Ar 10.83359 12.36084 0.28731
Ar 13.11416 13.87151 2.25837
Ar 14.27494 10.86187 3.69261
Ar 14.42787 15.62781 22.12402
Ar 11.78114 11.06612 6.09588
Ar 12.67215 15.66256 8.24463
Ar 14.01849 11.35731 8.61454
Ar 14.99007 14.04114 5.86339
Ar 11.91875 10.97572 11.79794
Ar 11.59303 14.22430 14.41959
Ar 14.77527 10.36097 13.82401
Ar 13.70278 14.42268 11.56524
Ar 11.94012 10.90282 16.29443
Ar 11.62278 14.51366 20.55579
Ar 13.73661 11.33534 19.86288
Ar 13.82114 14.92468 17.77074
Ar 11.22082 17.20903 0.35271
Ar 11.63752 20.71224 2.83150
Ar 15.43560 17.11469 3.07928
Ar 14.35512 19.45935 0.54538
Ar 11.78757 16.98036 4.35482
Ar 11.55910 20.48182 8.82161
Ar 15.33912 18.45828 7.93639
Ar 14.22154 20.25775 5.40408
Ar 11.31327 17.05254 11.89169
Ar 11.71385 20.01167 14.46672
Ar 14.40176 17.39813 14.63866
Ar 15.11796 21.24799 10.77370
Ar 11.27990 17.59033 17.24596
Ar 10.65570 20.56905 20.52501
Ar 13.42294 17.95095 19.66037
Ar 14.42054 20.25209 16.87446
Ar 16.37897 22.21838 22.54634
Ar 16.90893 2.56373 2.43954
Ar 19.66236 22.71028 2.14065
Ar 18.83901 1.54316 22.06607
Ar 18.50568 0.40186 5.34079
Ar 17.19651 2.51464 7.86429
Ar 20.89233 1.95494 7.73099
Ar 20.13680 3.86539 3.70242
Ar 17.40109 1.09121 10.97819
Ar 17.97278 3.87787 14.67587
Ar 19.86687 22.80727 13.76265
Ar 20.17122 3.29256 11.42372
Ar 16.71091 0.43509 18.41522
Ar 15.88923 3.06381 20.36288
Ar 20.50897 22.13861 19.81395
Ar 19.49289 1.80304 17.07926
Ar 16.12123 5.84143 22.14887
Ar 17.03979 8.63134 1.85477
Ar 19.38043 5.45251 0.71716
Ar 19.74930 8.40680 21.82063
Ar 17.57845 5.81544 5.14814
Ar 17.29524 7.82818 8.27381
Ar 20.15637 5.62630 7.42597
Ar 20.60950 8.02900 5.11197
Ar 16.75061 4.92895 11.06774
Ar 17.36875 7.14298 13.52995
Ar 20.58386 6.05800 15.09175
Ar 20.06287 8.57457 11.17392
Ar 17.29855 5.49482 17.81979
Ar 16.43896 8.60967 19.94891
Ar 21.54678 3.02360 19.98797
Ar 19.47244 8.78959 17.17706
Ar 15.92460 12.01314 0.26639
Ar 16.90701 13.90141 2.88236
Ar 19.67397 11.27945 2.58496
Ar 19.70958 13.87305 22.14535
Ar 16.75207 10.55498 5.92530
Ar 16.79084 14.54160 9.43548
Ar 19.68363 11.29927 8.56344
Ar 19.25210 13.96532 5.57924
Ar 17.14419 11.05408 11.04120
Ar 15.61494 13.96516 14.75630
Ar 18.71292 10.89860 14.41700
Ar 19.17637 13.61241 12.49128
Ar 16.58739 11.31577 17.01532
Ar 16.70614 13.63066 20.00919
Ar 20.05139 11.97108 18.84716
Ar 18.78450 14.25549 16.21745
Ar 17.69797 16.59077 0.12120
Ar 17.00141 20.39242 3.43894
Ar 20.04832 15.57323 2.48631
Ar 18.96647 19.95919 22.66925
Ar 18.78370 17.67969 6.29631
Ar 18.44498 20.98471 8.21424
Ar 19.86748 16.88161 9.65630
Ar 21.12440 19.34082 4.21305
Ar 16.61716 17.38356 11.64346
Ar 16.99140 20.86857 13.73153
Ar 20.16467 17.39760 14.17815
Ar 21.11996 19.81125 11.55636
Ar 16.63874 16.65480 17.20288
Ar 16.54667 19.65555 19.54033
Ar 19.33135 16.69612 19.53151
Ar 19.23177 20.39439 16.83928
256
frame 25
Ar 22.74800 0.67880 22.47203
Ar 0.04229 3.57486 1.32595
Ar 2.48192 22.77789 3.15654
Ar 3.59829 2.61082 0.80785
Ar 22.07462 0.99625 4.23267
Ar 0.92117 3.39659 9.16965
Ar 2.73032 0.30371 8.71934
Ar 3.75858 1.99156 5.78416
Ar 22.76242 22.73399 11.00362
Ar 22.55960 3.08264 14.63684
Ar 2.62534 22.36287 14.45503
Ar 2.74396 2.31217 11.89170
Ar 0.50045 0.27014 17.31511
Ar 1.85630 3.03129 20.51560
Ar 3.09132 22.43194 20.36412
Ar 3.01587 2.84779 17.30162
Ar 0.30588 6.43854 21.75744
Ar 22.26614 8.23449 2.04048
Ar 2.24605 5.66999 2.92740
Ar 2.65851 8.90121 0.14392
Ar 0.34664 4.67620 6.01372
Ar 22.64910 8.28898 8.54034
Ar 3.28736 5.90096 7.96216
Ar 1.99640 8.25609 5.47958
Ar 0.07938 6.05821 12.33506
Ar 22.80694 8.77083 14.73861
Ar 2.74499 5.49092 14.21302
Ar 2.31441 8.47451 11.61918
Ar 0.31151 5.61924 17.58598
Ar 22.23390 8.96971 19.37198
Ar 3.57305 6.47024 19.89823
Ar 3.11165 8.91528 16.57139
Ar 21.67921 11.12707 22.08189
Ar 0.91259 13.67638 3.21656
Ar 3.30481 10.80190 3.08512
Ar 3.10579 13.63786 22.33415
Ar 22.49730 11.19365 6.14872
Ar 22.09860 14.45772 9.07823
Ar 3.38006 11.11723 9.69628
Ar 2.95137 14.03507 6.74307
Ar 22.47221 11.64460 11.68343
Ar 22.35092 13.63102 14.59490
Ar 3.09728 11.44607 13.29711
Ar 2.90013 14.91689 10.71504
Ar 0.62237 11.21848 17.19949
Ar 22.54163 14.65424 19.55482
Ar 2.92714 11.06407 19.64959
Ar 3.48091 14.38754 17.65779
Ar 0.58934 16.41522 0.17381
Ar 22.54203 20.54767 1.30580
Ar 3.41158 16.78098 2.75911
Ar 3.41309 19.60870 0.25053
Ar 22.34356 16.09805 5.52684
Ar 22.73586 21.39877 6.82348
Ar 2.07088 17.52895 8.28009
Ar 2.27779 19.55832 5.17001
Ar 22.54301 16.66795 11.96719
Ar 22.74489 19.96648 14.38038
Ar 2.19960 16.47695 14.70317
Ar 1.91046 19.72640 11.04474
Ar 22.44982 17.39134 17.36407
Ar 22.29751 19.11007 21.11936
Ar 3.08592 17.09233 19.86555
Ar 2.65444 19.58239 17.65995
Ar 6.10792 22.64276 0.79249
Ar 6.06047 3.28126 3.06504
Ar 8.40130 0.52343 3.36957
Ar 8.09193 2.61611 0.22602
Ar 6.21587 21.87604 5.94040
Ar 5.44150 2.44765 9.06145
Ar 8.53082 22.64552 8.38252
Ar 8.16800 2.88065 6.64851
Ar 5.39772 22.67824 11.72576
Ar 6.08192 3.02706 14.21382
Ar 8.77991 22.60881 14.89609
Ar 8.20463 2.24638 10.90107
Ar 5.07585 21.91716 17.17830
Ar 5.25538 2.76538 20.36483
Ar 8.15138 0.34995 19.91305
Ar 8.01457 3.12925 17.70013
Ar 4.79343 5.71677 0.39494
Ar 6.85929 8.38556 1.62024
Ar 9.25834 5.84506 3.30907
Ar 9.57665 8.56982 21.93042
Ar 5.89174 6.54190 5.04331
Ar 6.08883 8.75176 8.79362
Ar 8.86943 5.77744 8.89553
Ar 9.60638 8.26079 6.13478
Ar 5.11112 5.16355 11.31480
Ar 5.80118 8.90903 13.22775
Ar 8.63483 5.68821 13.61636
Ar 8.90989 8.83969 10.89766
Ar 5.72352 5.76351 17.01789
Ar 6.52445 8.44374 20.33776
Ar 8.51103 5.74840 19.99140
Ar 8.24071 8.36126 16.81507
Ar 6.50826 11.31919 22.41547
Ar 5.41616 14.31177 4.17100
Ar 8.95202 11.52477 3.65509
Ar 8.95110 14.93488 2.35315
Ar 5.73836 11.28232 6.37096
Ar 5.75683 14.40819 8.50499
Ar 10.24080 13.24351 8.98442
Ar 9.20598 15.03336 6.13825
Ar 6.88193 12.14527 11.96670
Ar 5.54323 14.36479 14.75063
Ar 9.11602 10.88752 14.37108
Ar 8.08889 15.44180 11.89293
Ar 5.87363 11.35612 16.49911
Ar 5.73658 15.08860 20.26444
Ar 8.82095 11.22091 19.12536
Ar 9.32544 14.80960 16.91920
Ar 6.62041 17.06003 0.58824
Ar 5.05061 20.03762 3.23887
Ar 7.76361 17.96584 3.80590
Ar 8.41326 19.83276 0.68187
Ar 4.99048 17.26809 6.20375
Ar 4.83609 20.23815 8.72156
Ar 8.14274 17.76597 8.62818
Ar 9.48322 19.94977 6.15831
Ar 5.49564 17.65580 11.35100
Ar 5.11910 19.47674 14.53948
Ar 8.35853 18.17055 14.59126
Ar 8.54782 20.08767 11.36534
Ar 5.97987 17.08125 17.51226
Ar 6.23581 20.32522 20.54460
Ar 8.58839 17.31703 20.04453
Ar 8.43007 20.53792 17.68406
Ar 10.37400 0.18024 0.23342
Ar 11.30465 2.65525 2.69620
Ar 14.53711 22.58984 2.57916
Ar 13.62846 2.16932 0.33008
Ar 11.01728 0.41272 5.65419
Ar 11.26959 2.25686 8.75408
Ar 14.04412 0.06738 7.57164
Ar 14.26362 2.82041 4.72631
Ar 11.27446 0.27979 11.81236
Ar 10.69698 2.40572 14.72428
Ar 15.92880 1.13313 14.51124
Ar 14.35898 2.47902 11.81722
Ar 11.30661 22.55242 17.39232
Ar 10.93230 3.26374 20.90489
Ar 13.33914 22.20588 20.20281
Ar 13.41933 2.59934 17.42301
Ar 11.64831 5.97047 0.46128
Ar 11.20435 8.98645 2.69980
Ar 14.25210 6.24015 2.53730
Ar 13.27718 9.03300 22.71524
Ar 10.97813 4.96712 6.33462
Ar 12.10454 7.88932 8.82502
Ar 14.19746 4.91230 8.26320
Ar 14.43805 7.77054 6.05207
Ar 11.70724 5.24140 11.12624
Ar 11.33747 7.90150 14.34584
Ar 14.56706 5.10756 14.74186
Ar 15.07805 7.81802 10.83190
Ar 10.59647 5.43592 17.33691
Ar 11.43012 8.66521 19.08433
Ar 13.28884 5.95894 20.22489
Ar 14.41228 8.00190 17.00433
Ar 10.75939 12.31340 0.33456
Ar 13.20196 13.83539 2.24942
Ar 14.23863 10.83473 3.70709
Ar 14.34076 15.63161 22.09213
Ar 11.77609 11.00814 6.23074
Ar 12.77107 15.78155 8.21264
Ar 13.96780 11.34476 8.56991
Ar 15.14133 14.12067 5.97844
Ar 11.85791 11.10164 11.73040
Ar 11.65217 14.12947 14.41778
Ar 14.72814 10.30951 13.76153
Ar 13.75683 14.43343 11.50013
Ar 11.96300 10.95152 16.18597
Ar 11.60549 14.43824 20.50931
Ar 13.75648 11.22045 19.81864
Ar 13.85123 14.88195 17.74552
Ar 11.21413 17.31485 0.33790
Ar 11.59848 20.69430 2.88798
Ar 15.45918 17.20080 3.08828
Ar 14.34855 19.45361 0.58652
Ar 11.84244 17.01946 4.37721
Ar 11.61288 20.47332 8.73289
Ar 15.27804 18.46420 7.86488
Ar 14.16007 20.30886 5.32618
Ar 11.38360 17.05022 11.81751
Ar 11.66755 20.03202 14.34960
Ar 14.34523 17.35554 14.55070
Ar 15.11815 21.20159 10.82266
Ar 11.31952 17.68403 17.21225
Ar 10.59662 20.65411 20.55309
Ar 13.52009 18.02949 19.69767
Ar 14.57336 20.29733 16.85279
Ar 16.40914 22.33370 22.55199
Ar 16.86689 2.51941 2.41939
Ar 19.64522 22.82325 2.13612
Ar 18.81902 1.56338 22.07317
Ar 18.58621 0.51843 5.37947
Ar 17.10855 2.53217 7.84896
Ar 20.92040 2.06376 7.58013
Ar 20.09063 3.90984 3.73575
Ar 17.44166 1.02880 10.92981
Ar 17.96721 3.83665 14.72001
Ar 19.83395 0.00002 13.92372
Ar 20.17751 3.28795 11.45346
Ar 16.62948 0.38799 18.35372
Ar 15.90859 3.01313 20.44530
Ar 20.57563 22.15212 19.80157
Ar 19.52874 1.81816 17.03808
Ar 16.13321 5.75739 22.20972
Ar 17.05985 8.67163 1.78955
Ar 19.34597 5.34794 0.73728
Ar 19.75038 8.46825 21.86004
Ar 17.46700 5.75990 5.14620
Ar 17.23435 7.65348 8.21805
Ar 20.16651 5.60976 7.42519
Ar 20.52783 8.05027 5.21739
Ar 16.70065 4.80840 10.85954
Ar 17.36189 7.21550 13.56746
Ar 20.63483 6.07695 15.13389
Ar 20.12553 8.60542 11.22470
Ar 17.27693 5.39413 17.89801
Ar 16.27523 8.57076 19.94422
Ar 21.59096 2.94217 19.85888
Ar 19.44835 8.81061 17.22133
Ar 15.87766 11.93005 0.32189
Ar 16.82796 13.89936 2.81694
Ar 19.66902 11.26167 2.58590
Ar 19.70774 13.89505 22.12235
Ar 16.69432 10.46449 5.93700
Ar 16.82608 14.52819 9.38243
Ar 19.75455 11.32155 8.54019
Ar 19.27458 13.92084 5.64566
Ar 17.18397 11.00092 11.06492
Ar 15.55641 14.00818 14.79672
Ar 18.67837 10.99963 14.35360
Ar 19.14404 13.65888 12.43634
Ar 16.52660 11.35077 16.94731
Ar 16.68454 13.68569 19.97579
Ar 19.94917 11.94674 18.93691
Ar 18.66235 14.32207 16.18879
Ar 17.65031 16.47274 0.18929
Ar 17.20366 20.41047 3.41078
Ar 20.07671 15.55270 2.43757
Ar 18.90253 19.90068 22.67287
Ar 18.76825 17.61150 6.36007
Ar 18.35891 21.07249 8.29809
Ar 19.75806 16.91405 9.74551
Ar 21.24573 19.33636 4.16300
Ar 16.63907 17.36748 11.69693
Ar 17.07691 20.88722 13.79636
Ar 20.07318 17.36837 14.30435
Ar 21.10132 19.84905 11.38660
Ar 16.74349 16.64315 17.26928
Ar 16.53943 19.72189 19.67011
Ar 19.30507 16.70347 19.57177
Ar 19.27145 20.34322 16.82757
256
frame 26
Ar 22.68948 0.58359 22.33610
Ar 0.08317 3.45616 1.27423
Ar 2.50015 22.74925 3.17979
Ar 3.54141 2.55871 0.77867
Ar 22.07563 1.01062 4.24757
Ar 0.98390 3.35629 9.27991
Ar 2.75589 0.37381 8.70858
Ar 3.73532 1.96630 5.78541
Ar 22.77295 22.61042 10.90903
Ar 22.58339 2.98336 14.61769
Ar 2.48711 22.42547 14.39483
Ar 2.80274 2.36146 11.86875
Ar 0.49300 0.27872 17.20053
Ar 1.93131 3.05654 20.42021
Ar 3.02465 22.47321 20.36566
Ar 3.03409 2.97389 17.34337
Ar 0.32600 6.42204 21.78988
Ar 22.21593 8.09550 2.03017
Ar 2.25679 5.77165 2.86489
Ar 2.79628 8.84328 0.15321
Ar 0.42028 4.66287 6.02805
Ar 22.62353 8.20008 8.38337
Ar 3.38718 5.95917 7.94958
Ar 1.94697 8.23148 5.55794
Ar 0.05737 6.05793 12.30342
Ar 0.09682 8.88246 14.79484
Ar 2.80190 5.48755 14.30208
Ar 2.16838 8.47350 11.71544
Ar 0.33506 5.65567 17.61818
Ar 22.23332 9.04225 19.37903
Ar 3.48490 6.53447 19.98375
Ar 3.11891 8.88792 16.54036
Ar 21.76956 10.98868 22.10022
Ar 1.10097 13.64888 3.21287
Ar 3.33069 10.77218 3.18499
Ar 3.15602 13.65107 22.24726
Ar 22.57086 11.13945 6.09081
Ar 21.96872 14.38370 9.13469
Ar 3.38728 11.11171 9.66349
Ar 2.93875 13.98006 6.69976
Ar 22.46347 11.56922 11.71918
Ar 22.40832 13.73520 14.62757
Ar 3.11071 11.51708 13.37421
Ar 2.89232 14.89030 10.74628
Ar 0.58768 11.22581 17.13563
Ar 22.56771 14.63371 19.51909
Ar 2.96892 10.94892 19.60103
Ar 3.50422 14.40905 17.54103
Ar 0.61768 16.46801 0.07056
Ar 22.58198 20.55270 1.39633
Ar 3.38189 16.73960 2.79992
Ar 3.31387 19.65218 0.27928
Ar 22.30555 16.16043 5.55166
Ar 22.66952 21.46151 6.75686
Ar 2.06864 17.53007 8.19655
Ar 2.16025 19.56341 5.22764
Ar 22.56601 16.72293 11.95961
Ar 22.71015 20.05181 14.28913
Ar 2.25340 16.42275 14.56963
Ar 1.93974 19.74298 11.13191
Ar 22.39936 17.40953 17.21930
Ar 22.27535 19.03473 21.14975
Ar 3.04490 17.19051 19.87877
Ar 2.66763 19.62122 17.63375
Ar 6.03049 22.62448 0.89176
Ar 6.23262 3.30101 3.12411
Ar 8.27258 0.54670 3.30169
Ar 8.12423 2.64921 0.23664
Ar 6.18631 21.89143 5.80460
Ar 5.37751 2.45778 9.16301
Ar 8.56101 22.68438 8.34347
Ar 8.17732 2.81725 6.65925
Ar 5.34084 22.69603 11.82044
Ar 6.14745 2.90153 14.28654
Ar 8.67818 22.49365 14.93685
Ar 8.24229 2.23606 10.89439
Ar 5.05309 21.74774 17.19932
Ar 5.31847 2.57015 20.40586
Ar 8.14953 0.38632 20.03848
Ar 7.96978 3.09437 17.72966
Ar 4.83042 5.71983 0.34772
Ar 6.91971 8.30649 1.63697
Ar 9.26475 5.93451 3.36294
Ar 9.77174 8.64028 21.94779
Ar 5.85431 6.50926 5.03370
Ar 6.08845 8.73877 8.75895
Ar 8.86043 5.75032 8.86316
Ar 9.59106 8.35392 6.17835
Ar 5.02096 5.27327 11.24245
Ar 5.79436 8.85682 13.08898
Ar 8.57977 5.73468 13.50915
Ar 8.84469 8.87845 10.90474
Ar 5.85008 5.95328 17.01327
Ar 6.54399 8.44571 20.22709
Ar 8.54431 5.85077 19.93904
Ar 8.19339 8.43756 16.65810
Ar 6.66997 11.34230 22.50116
Ar 5.44183 14.27452 4.26334
Ar 8.89501 11.43716 3.59888
Ar 8.86814 14.87331 2.33127
Ar 5.65832 11.36035 6.47893
Ar 5.80476 14.37732 8.50583
Ar 10.29562 13.28336 8.96099
Ar 9.19451 15.05094 6.14299
Ar 6.94351 12.22507 11.93861
Ar 5.53443 14.20066 14.80026
Ar 8.98757 10.86007 14.40360
Ar 8.02915 15.46607 11.87506
Ar 5.84572 11.38272 16.43441
Ar 5.79782 15.13322 20.29834
Ar 8.69079 11.29604 19.08395
Ar 9.20590 14.89062 16.84746
Ar 6.66178 16.94739 0.72957
Ar 4.99120 20.02433 3.31680
Ar 7.73895 17.88335 3.83737
Ar 8.45848 19.78186 0.81487
Ar 4.89960 17.34281 6.15946
Ar 4.78662 20.21831 8.76979
Ar 8.12352 17.75030 8.70521
Ar 9.44950 19.97670 6.10158
Ar 5.61080 17.69741 11.31285
Ar 5.07100 19.65447 14.54142
Ar 8.39477 18.06180 14.60141
Ar 8.52093 19.98273 11.34581
Ar 5.98084 17.06502 17.48367
Ar 6.30907 20.40407 20.51533
Ar 8.60011 17.37106 20.05133
Ar 8.48206 20.56737 17.76404
Ar 10.42395 0.24478 0.35330
Ar 11.27458 2.68611 2.69124
Ar 14.56676 22.60460 2.59432
Ar 13.66832 2.22000 0.37720
Ar 11.17033 0.39911 5.74597
Ar 11.36715 2.23043 8.73866
Ar 14.10721 0.06834 7.55337
Ar 14.31211 2.88756 4.80217
Ar 11.23690 0.22873 11.85370
Ar 10.70625 2.45680 14.71515
Ar 15.90170 1.19277 14.52306
Ar 14.39362 2.44108 11.78863
Ar 11.40012 22.63830 17.37454
Ar 10.76575 3.14027 20.94446
Ar 13.28316 22.12930 20.24183
Ar 13.35486 2.59031 17.47262
Ar 11.65197 5.95200 0.51842
Ar 11.24126 8.94367 2.86818
Ar 14.30376 6.35256 2.53314
Ar 13.28966 8.97267 22.66779
Ar 11.08449 4.86936 6.30983
Ar 12.24707 8.00735 8.85191
Ar 14.28794 4.98712 8.35378
Ar 14.36282 7.70132 6.03784
Ar 11.71098 5.28920 11.07539
Ar 11.40733 7.93544 14.44011
Ar 14.56633 5.10259 14.74335
Ar 15.00464 7.80425 10.80980
Ar 10.63530 5.37362 17.35807
Ar 11.45796 8.65247 19.01226
Ar 13.24111 5.92664 20.15121
Ar 14.38927 8.00842 16.97070
Ar 10.66623 12.23456 0.37863
Ar 13.28974 13.82904 2.25313
Ar 14.19177 10.79724 3.68570
Ar 14.27919 15.63270 22.08523
Ar 11.72066 10.95653 6.31778
Ar 12.86294 15.90597 8.17849
Ar 13.97661 11.34159 8.58496
Ar 15.29060 14.19667 6.09401
Ar 11.79123 11.22701 11.66094
Ar 11.72019 14.03748 14.40469
Ar 14.68866 10.25346 13.70581
Ar 13.82634 14.43117 11.43058
Ar 12.01895 11.00725 16.10867
Ar 11.55440 14.36292 20.43598
Ar 13.78068 11.12759 19.76983
Ar 13.85337 14.82142 17.72621
Ar 11.20401 17.42282 0.32376
Ar 11.52956 20.66426 2.93806
Ar 15.47631 17.28189 3.11242
Ar 14.33778 19.44747 0.61192
Ar 11.89819 17.06264 4.39703
Ar 11.68657 20.46380 8.67520
Ar 15.23817 18.44842 7.83161
Ar 14.07813 20.35484 5.21650
Ar 11.44848 17.06415 11.74369
Ar 11.61786 20.05946 14.22756
Ar 14.27380 17.31872 14.46144
Ar 15.09876 21.14404 10.86137
Ar 11.33688 17.78965 17.14735
Ar 10.46602 20.65560 20.58529
Ar 13.62004 18.11912 19.76326
Ar 14.71544 20.34985 16.81650
Ar 16.38053 22.41359 22.54380
Ar 16.84183 2.48426 2.38315
Ar 19.62125 0.08704 2.11042
Ar 18.86031 1.65890 22.04544
Ar 18.65223 0.62806 5.41687
Ar 17.01160 2.57147 7.81853
Ar 20.94177 2.16068 7.43673
Ar 20.05646 3.94181 3.79728
Ar 17.50320 0.95159 10.90165
Ar 17.96930 3.80711 14.73542
Ar 19.83577 0.03761 14.07569
Ar 20.19634 3.28987 11.48503
Ar 16.53945 0.31328 18.28270
Ar 15.91235 2.93002 20.50452
Ar 20.63714 22.15919 19.78559
Ar 19.58955 1.83026 17.00782
Ar 16.15134 5.71936 22.31455
Ar 17.07801 8.70781 1.72713
Ar 19.32170 5.24163 0.74401
Ar 19.70671 8.49340 21.89764
Ar 17.32670 5.70391 5.12982
Ar 17.20363 7.48201 8.16142
Ar 20.16243 5.56105 7.48095
Ar 20.44674 8.10900 5.29638
Ar 16.69018 4.67603 10.65112
Ar 17.36311 7.30933 13.61612
Ar 20.66553 6.09475 15.17445
Ar 20.18477 8.63299 11.28283
Ar 17.25295 5.29969 17.98061
Ar 16.12503 8.53930 19.94897
Ar 21.53279 2.86861 19.70734
Ar 19.40748 8.82319 17.25988
Ar 15.81593 11.81746 0.33897
Ar 16.76979 13.90889 2.77818
Ar 19.66594 11.24742 2.58844
Ar 19.70294 13.91768 22.09028
Ar 16.68483 10.38968 5.97282
Ar 16.86426 14.50691 9.32077
Ar 19.82498 11.34443 8.51609
Ar 19.29540 13.86688 5.72259
Ar 17.20567 10.93949 11.07729
Ar 15.48285 14.03849 14.80080
Ar 18.66338 11.05501 14.29540
Ar 19.12600 13.76174 12.35139
Ar 16.44201 11.37611 16.91913
Ar 16.66610 13.74572 19.93295
Ar 19.84245 11.92904 19.02189
Ar 18.62376 14.33077 16.14627
Ar 17.57613 16.38411 0.24524
Ar 17.42708 20.41822 3.37902
Ar 20.13512 15.53727 2.41317
Ar 18.85546 19.83396 22.67734
Ar 18.74454 17.54438 6.41374
Ar 18.27139 21.15756 8.38674
Ar 19.62667 16.95469 9.83656
Ar 21.34673 19.32387 4.13739
Ar 16.66096 17.35714 11.75341
Ar 17.15160 20.84034 13.85886
Ar 19.95819 17.33985 14.44403
Ar 21.03217 19.87053 11.19742
Ar 16.80353 16.71570 17.35059
Ar 16.56560 19.79247 19.82019
Ar 19.29686 16.71462 19.62775
Ar 19.31032 20.28807 16.81612
256
frame 27
Ar 22.64084 0.48114 22.18831
Ar 0.10607 3.35911 1.23653
Ar 2.51934 22.70847 3.18657
Ar 3.47564 2.48010 0.75643
Ar 22.11025 1.03867 4.26076
Ar 1.01773 3.34364 9.37417
Ar 2.75718 0.40056 8.70037
Ar 3.71993 1.96506 5.77760
Ar 22.80064 22.56205 10.81531
Ar 22.61102 2.87770 14.59754
Ar 2.36735 22.49658 14.32064
Ar 2.87426 2.40785 11.89442
Ar 0.47172 0.28521 17.10380
Ar 2.00382 3.10724 20.38918
Ar 2.95827 22.50113 20.36808
Ar 3.08023 3.10064 17.32112
Ar 0.33797 6.39061 21.81829
Ar 22.16264 7.96123 2.02402
Ar 2.27506 5.87707 2.80831
Ar 2.93654 8.78933 0.15678
Ar 0.50635 4.65285 6.01648
Ar 22.59599 8.10879 8.24622
Ar 3.49223 6.01230 7.94362
Ar 1.90346 8.21052 5.62227
Ar 22.79988 6.00764 12.25486
Ar 0.18942 8.97416 14.81318
Ar 2.88031 5.48218 14.41261
Ar 2.06027 8.49906 11.79858
Ar 0.37417 5.69358 17.66151
Ar 22.24656 9.06814 19.38192
Ar 3.38860 6.59681 20.04839
Ar 3.15566 8.83614 16.51052
Ar 21.91459 10.91541 22.15586
Ar 1.28448 13.62724 3.20660
Ar 3.36631 10.74398 3.29177
Ar 3.19833 13.66228 22.16805
Ar 22.64777 11.09957 6.02555
Ar 21.85082 14.29891 9.18225
Ar 3.39588 11.12287 9.61968
Ar 2.87903 13.92211 6.65327
Ar 22.45580 11.48896 11.74743
Ar 22.45991 13.84945 14.66420
Ar 3.12482 11.60089 13.46602
Ar 2.88153 14.85950 10.78412
Ar 0.54197 11.30869 17.06120
Ar 22.59937 14.60309 19.48979
Ar 3.03125 10.83042 19.57525
Ar 3.49543 14.41490 17.44107
Ar 0.66199 16.48188 22.82094
Ar 22.65102 20.57319 1.46892
Ar 3.33908 16.70439 2.83199
Ar 3.20598 19.69414 0.28756
Ar 22.27582 16.21603 5.58504
Ar 22.58055 21.54157 6.73152
Ar 2.04758 17.52206 8.12803
Ar 2.04640 19.55179 5.27161
Ar 22.59989 16.76773 11.95302
Ar 22.67016 20.12725 14.21686
Ar 2.31713 16.37463 14.43943
Ar 1.98776 19.74963 11.22837
Ar 22.35011 17.43518 17.07273
Ar 22.23718 18.98440 21.12373
Ar 2.98388 17.27497 19.93067
Ar 2.61566 19.64395 17.58289
Ar 5.92161 22.59305 0.96009
Ar 6.38630 3.34549 3.20100
Ar 8.18592 0.55152 3.26307
Ar 8.11520 2.72619 0.24749
Ar 6.15828 21.92970 5.69770
Ar 5.30946 2.48339 9.23330
Ar 8.59330 22.68951 8.32566
Ar 8.17213 2.76744 6.64817
Ar 5.29487 22.69643 11.91699
Ar 6.20941 2.77317 14.35863
Ar 8.55022 22.37064 14.94778
Ar 8.31118 2.24326 10.92581
Ar 5.08792 21.66103 17.23759
Ar 5.40772 2.38326 20.44527
Ar 8.16195 0.45994 20.17440
Ar 7.91918 3.03974 17.74407
Ar 4.88684 5.72927 0.29402
Ar 6.98606 8.23172 1.66294
Ar 9.26074 6.01167 3.41127
Ar 9.94303 8.72704 21.99648
Ar 5.81550 6.48039 5.02638
Ar 6.07855 8.70314 8.72554
Ar 8.83128 5.72509 8.84375
Ar 9.54308 8.42048 6.22402
Ar 4.93731 5.40247 11.18180
Ar 5.78548 8.79727 12.95639
Ar 8.51951 5.78032 13.40047
Ar 8.80071 8.91927 10.92671
Ar 5.95138 6.12781 17.00831
Ar 6.52323 8.49095 20.11504
Ar 8.58298 5.92221 19.91632
Ar 8.16199 8.50344 16.52008
Ar 6.83215 11.37894 22.58599
Ar 5.49458 14.22793 4.34162
Ar 8.82148 11.35473 3.55268
Ar 8.81025 14.79193 2.31559
Ar 5.57795 11.43821 6.57132
Ar 5.88768 14.35905 8.52801
Ar 10.35134 13.31637 8.95569
Ar 9.17224 15.07646 6.13369
Ar 6.98163 12.28436 11.88894
Ar 5.53986 14.09673 14.79276
Ar 8.86137 10.85186 14.41546
Ar 8.01091 15.48513 11.86230
Ar 5.82159 11.35703 16.40260
Ar 5.88268 15.14242 20.35903
Ar 8.56560 11.37796 19.04282
Ar 9.07088 14.96369 16.78378
Ar 6.64921 16.81334 0.82891
Ar 4.94140 19.99667 3.36180
Ar 7.72696 17.79691 3.89875
Ar 8.52050 19.77334 0.94737
Ar 4.83081 17.41934 6.11655
Ar 4.74586 20.19325 8.81576
Ar 8.10475 17.71726 8.76164
Ar 9.41030 20.00138 6.02378
Ar 5.67990 17.76063 11.27648
Ar 5.01848 19.81138 14.51399
Ar 8.43627 17.95013 14.61518
Ar 8.50235 19.89953 11.34200
Ar 5.98535 17.07790 17.42307
Ar 6.35058 20.44987 20.50694
Ar 8.62812 17.43095 20.06234
Ar 8.52772 20.55296 17.81911
Ar 10.50366 0.26644 0.46673
Ar 11.21911 2.74033 2.72409
Ar 14.58121 22.61425 2.64222
Ar 13.72189 2.28926 0.38509
Ar 11.31236 0.38456 5.80992
Ar 11.47096 2.21605 8.74317
Ar 14.20388 0.09004 7.56035
Ar 14.35192 2.96058 4.89650
Ar 11.20120 0.16614 11.89088
Ar 10.72844 2.53984 14.70560
Ar 15.85714 1.22281 14.57161
Ar 14.37512 2.40343 11.73694
Ar 11.47457 22.70237 17.34253
Ar 10.62695 3.01596 20.95605
Ar 13.32362 22.09438 20.29196
Ar 13.31434 2.61024 17.52903
Ar 11.61760 5.89937 0.56577
Ar 11.28339 8.88903 3.03224
Ar 14.37987 6.46533 2.56280
Ar 13.32654 8.92382 22.61814
Ar 11.22184 4.77575 6.26710
Ar 12.34665 8.14234 8.86363
Ar 14.34347 5.05061 8.41586
Ar 14.26663 7.63596 5.99961
Ar 11.71771 5.32605 11.04305
Ar 11.48229 7.95882 14.52716
Ar 14.55368 5.09209 14.73960
Ar 14.93196 7.80377 10.82449
Ar 10.71232 5.31512 17.34173
Ar 11.46859 8.64360 18.90409
Ar 13.20713 5.87483 20.06768
Ar 14.36337 8.01619 16.91900
Ar 10.56765 12.13713 0.41942
Ar 13.35673 13.84865 2.26127
Ar 14.14507 10.74893 3.64509
Ar 14.23490 15.62684 22.09867
Ar 11.63057 10.92609 6.35229
Ar 12.93419 16.02372 8.14564
Ar 14.04921 11.35215 8.65820
Ar 15.43712 14.26737 6.19830
Ar 11.72031 11.34698 11.59639
Ar 11.78765 13.96297 14.37879
Ar 14.65520 10.19539 13.65450
Ar 13.90795 14.41736 11.35918
Ar 12.09634 11.06296 16.06489
Ar 11.47405 14.28475 20.34695
Ar 13.80515 11.07179 19.71691
Ar 13.83260 14.75706 17.71892
Ar 11.19191 17.52695 0.30975
Ar 11.43057 20.62860 2.97147
Ar 15.49039 17.35475 3.15651
Ar 14.32433 19.44834 0.61942
Ar 11.95248 17.10819 4.41497
Ar 11.77259 20.45117 8.64127
Ar 15.22321 18.43262 7.82016
Ar 13.99901 20.38101 5.10339
Ar 11.50409 17.09024 11.67000
Ar 11.56783 20.09237 14.10370
Ar 14.18801 17.29417 14.37878
Ar 15.06357 21.07767 10.89350
Ar 11.34624 17.90112 17.07166
Ar 10.28483 20.58695 20.64049
Ar 13.69666 18.21064 19.83203
Ar 14.84419 20.39820 16.76717
Ar 16.31505 22.46372 22.51891
Ar 16.83543 2.46545 2.33476
Ar 19.59883 0.15216 2.06692
Ar 18.95151 1.81195 21.98495
Ar 18.69171 0.71866 5.44074
Ar 16.91098 2.61974 7.76989
Ar 20.97210 2.24616 7.32134
Ar 20.03883 3.96074 3.88626
Ar 17.58098 0.86589 10.89161
Ar 17.98607 3.80865 14.72111
Ar 19.87346 0.08904 14.20255
Ar 20.22540 3.29692 11.51775
Ar 16.45272 0.23065 18.20419
Ar 15.90090 2.82459 20.53975
Ar 20.68281 22.15002 19.75628
Ar 19.65634 1.83626 16.99828
Ar 16.15757 5.71674 22.43776
Ar 17.09473 8.73591 1.67136
Ar 19.31626 5.13831 0.73514
Ar 19.61104 8.46829 21.93019
Ar 17.16867 5.64195 5.09806
Ar 17.19409 7.32223 8.11519
Ar 20.14458 5.49412 7.57405
Ar 20.36179 8.19593 5.35132
Ar 16.74305 4.55775 10.48225
Ar 17.36857 7.41290 13.66840
Ar 20.68152 6.11314 15.20906
Ar 20.24180 8.65556 11.34457
Ar 17.22672 5.21192 18.06522
Ar 15.99992 8.50315 19.96943
Ar 21.43465 2.81209 19.55579
Ar 19.34959 8.82813 17.28965
Ar 15.74242 11.68585 0.31668
Ar 16.74252 13.92713 2.77021
Ar 19.66528 11.23740 2.59238
Ar 19.71134 13.92109 22.05036
Ar 16.71198 10.32868 6.02528
Ar 16.90879 14.47958 9.25950
Ar 19.89174 11.36272 8.49427
Ar 19.31349 13.80674 5.80240
Ar 17.21147 10.87331 11.07142
Ar 15.40410 14.05178 14.76272
Ar 18.66652 11.07312 14.25131
Ar 19.12048 13.90837 12.24371
Ar 16.34097 11.38918 16.92309
Ar 16.64877 13.80808 19.88685
Ar 19.73453 11.91720 19.10060
Ar 18.65727 14.28476 16.09334
Ar 17.47937 16.32932 0.28768
Ar 17.65095 20.41581 3.35146
Ar 20.21816 15.52500 2.41424
Ar 18.82434 19.76460 22.68687
Ar 18.71465 17.48073 6.45488
Ar 18.18340 21.23643 8.47373
Ar 19.48809 16.98901 9.92331
Ar 21.40893 19.29137 4.15952
Ar 16.67708 17.35066 11.81411
Ar 17.20629 20.74578 13.91536
Ar 19.83175 17.31401 14.57860
Ar 20.91301 19.86142 11.00515
Ar 16.80433 16.86003 17.43411
Ar 16.62681 19.87062 19.97863
Ar 19.31566 16.73054 19.70566
Ar 19.34910 20.22950 16.81086
256
frame 28
Ar 22.61716 0.39065 22.05445
Ar 0.10692 3.28154 1.21326
Ar 2.53797 22.65680 3.17924
Ar 3.41922 2.39084 0.74420
Ar 22.17370 1.08121 4.24983
Ar 1.00957 3.36715 9.43438
Ar 2.73300 0.37522 8.69144
Ar 3.71340 1.99023 5.75901
Ar 0.01355 22.57925 10.72707
Ar 22.64152 2.77503 14.57345
Ar 2.27637 22.57707 14.22728
Ar 2.95978 2.45221 11.98026
Ar 0.43444 0.29008 17.03721
Ar 2.04029 3.17962 20.41928
Ar 2.89402 22.51048 20.36879
Ar 3.15536 3.22314 17.23350
Ar 0.33713 6.34620 21.84281
Ar 22.10113 7.83506 2.02706
Ar 2.29919 5.97945 2.75407
Ar 3.07463 8.74646 0.16099
Ar 0.60160 4.64773 5.98763
Ar 22.55593 8.01621 8.15136
Ar 3.59551 6.05606 7.94051
Ar 1.88277 8.19085 5.65371
Ar 22.68112 5.90908 12.20172
Ar 0.24415 9.02429 14.78065
Ar 2.96414 5.47995 14.52795
Ar 1.99513 8.55573 11.86318
Ar 0.42605 5.73315 17.71438
Ar 22.27178 9.05151 19.36987
Ar 3.29413 6.65989 20.08083
Ar 3.22033 8.76581 16.48736
Ar 22.09099 10.89208 22.25062
Ar 1.45635 13.61490 3.19771
Ar 3.41390 10.71019 3.40323
Ar 3.23007 13.66942 22.09670
Ar 22.72436 11.07946 5.95455
Ar 21.74398 14.21760 9.22562
Ar 3.40204 11.14435 9.57507
Ar 2.78587 13.86717 6.61494
Ar 22.45184 11.41408 11.77399
Ar 22.50237 13.97184 14.69726
Ar 3.13631 11.68871 13.56447
Ar 2.87031 14.82583 10.82485
Ar 0.50018 11.46434 17.01038
Ar 22.63496 14.56726 19.46251
Ar 3.10456 10.71057 19.56350
Ar 3.45206 14.41208 17.37383
Ar 0.72669 16.44775 22.78524
Ar 22.74532 20.61204 1.50659
Ar 3.28741 16.67491 2.85548
Ar 3.09642 19.73397 0.27940
Ar 22.25702 16.25365 5.62869
Ar 22.47109 21.63314 6.75467
Ar 2.00318 17.50136 8.09142
Ar 1.94376 19.53056 5.29338
Ar 22.63032 16.80675 11.94513
Ar 22.61204 20.18656 14.15624
Ar 2.39546 16.33459 14.31497
Ar 2.05388 19.74251 11.33074
Ar 22.30965 17.46314 16.93412
Ar 22.17844 18.97483 21.04926
Ar 2.91856 17.33726 20.01263
Ar 2.49235 19.64450 17.50897
Ar 5.78222 22.54869 0.98846
Ar 6.50355 3.42797 3.29175
Ar 8.16775 0.52732 3.25650
Ar 8.05707 2.82849 0.27641
Ar 6.13599 21.99676 5.64529
Ar 5.26236 2.52924 9.27903
Ar 8.62707 22.65534 8.33055
Ar 8.15642 2.74073 6.61385
Ar 5.26463 22.67733 12.01171
Ar 6.26770 2.64512 14.42789
Ar 8.41165 22.25910 14.92595
Ar 8.39639 2.26684 10.98306
Ar 5.18478 21.66845 17.30797
Ar 5.48834 2.22092 20.48606
Ar 8.20875 0.54291 20.31037
Ar 7.86744 2.97852 17.74512
Ar 4.95989 5.72438 0.23854
Ar 7.05693 8.16842 1.69333
Ar 9.24738 6.06745 3.46054
Ar 10.07145 8.82094 22.05927
Ar 5.77565 6.45858 5.02127
Ar 6.06172 8.64721 8.69260
Ar 8.78973 5.70121 8.83006
Ar 9.44685 8.43716 6.27574
Ar 4.86179 5.54869 11.13904
Ar 5.76921 8.73575 12.83264
Ar 8.45650 5.82623 13.29138
Ar 8.78148 8.96104 10.95818
Ar 6.00637 6.25797 17.01055
Ar 6.46645 8.57890 20.00668
Ar 8.63406 5.96269 19.91861
Ar 8.16248 8.54784 16.42547
Ar 6.99329 11.42299 22.66946
Ar 5.57070 14.18373 4.40146
Ar 8.73065 11.27418 3.51803
Ar 8.79122 14.67993 2.31593
Ar 5.50086 11.50158 6.64706
Ar 5.98827 14.35926 8.56636
Ar 10.40537 13.35105 8.96062
Ar 9.14131 15.10773 6.11299
Ar 6.99242 12.31217 11.81464
Ar 5.56650 14.07780 14.70939
Ar 8.76415 10.89393 14.38421
Ar 8.04242 15.50209 11.85624
Ar 5.79788 11.25893 16.41944
Ar 5.97873 15.13130 20.42764
Ar 8.44877 11.46554 19.00161
Ar 8.93130 15.02679 16.72584
Ar 6.57960 16.68883 0.87565
Ar 4.89255 19.93633 3.36213
Ar 7.72372 17.70873 3.98798
Ar 8.57234 19.79396 1.07790
Ar 4.79152 17.49072 6.07540
Ar 4.71434 20.17080 8.85091
Ar 8.09425 17.66300 8.77724
Ar 9.37146 20.02699 5.94152
Ar 5.68464 17.84188 11.25311
Ar 4.96653 19.93358 14.43956
Ar 8.47655 17.84458 14.62879
Ar 8.50132 19.85067 11.36298
Ar 5.98900 17.11382 17.34418
Ar 6.35486 20.46159 20.52740
Ar 8.66656 17.48709 20.07445
Ar 8.56416 20.50425 17.83442
Ar 10.60048 0.24705 0.56230
Ar 11.15091 2.81908 2.79355
Ar 14.58116 22.62824 2.70568
Ar 13.76986 2.37472 0.37381
Ar 11.42907 0.36699 5.83186
Ar 11.57774 2.21437 8.77608
Ar 14.34188 0.11984 7.59247
Ar 14.38402 3.03611 4.99973
Ar 11.16796 0.09815 11.92061
Ar 10.75071 2.63429 14.69406
Ar 15.79676 1.21708 14.64676
Ar 14.31574 2.36433 11.66526
Ar 11.51537 22.72288 17.29730
Ar 10.54291 2.90514 20.92386
Ar 13.40323 22.07534 20.35275
Ar 13.31110 2.67452 17.59416
Ar 11.56275 5.81822 0.60491
Ar 11.32992 8.82252 3.18187
Ar 14.46051 6.57602 2.61683
Ar 13.39250 8.87945 22.57609
Ar 11.37387 4.69198 6.21186
Ar 12.37493 8.29044 8.84936
Ar 14.32723 5.10757 8.42814
Ar 14.15572 7.58173 5.93902
Ar 11.72640 5.35511 11.02644
Ar 11.55394 7.96725 14.60310
Ar 14.53095 5.07573 14.73031
Ar 14.89694 7.80208 10.88723
Ar 10.81295 5.25869 17.29324
Ar 11.45102 8.63842 18.76931
Ar 13.18744 5.80294 19.98721
Ar 14.34247 8.02437 16.85051
Ar 10.47671 12.03454 0.45609
Ar 13.38679 13.88814 2.27126
Ar 14.11490 10.69431 3.59981
Ar 14.19141 15.61078 22.12036
Ar 11.55194 10.94090 6.35946
Ar 12.96578 16.11517 8.11762
Ar 14.16122 11.37681 8.75983
Ar 15.57207 14.33214 6.26941
Ar 11.64893 11.45450 11.54481
Ar 11.84270 13.92453 14.33376
Ar 14.62640 10.13918 13.60644
Ar 13.99645 14.39535 11.28689
Ar 12.18494 11.10675 16.05973
Ar 11.37141 14.20356 20.25394
Ar 13.82013 11.06600 19.66048
Ar 13.79527 14.69641 17.72326
Ar 11.18186 17.62069 0.29443
Ar 11.30325 20.59180 2.98149
Ar 15.50463 17.41887 3.22222
Ar 14.30963 19.45977 0.61091
Ar 12.00287 17.15414 4.43191
Ar 11.86302 20.43405 8.62157
Ar 15.24636 18.44313 7.81734
Ar 13.93876 20.37430 5.02455
Ar 11.54970 17.12458 11.59486
Ar 11.51887 20.12596 13.98163
Ar 14.08735 17.28606 14.30674
Ar 15.01670 21.00539 10.92232
Ar 11.35504 18.01369 16.99692
Ar 10.12152 20.48768 20.73641
Ar 13.73951 18.29871 19.89130
Ar 14.95004 20.42139 16.70418
Ar 16.24832 22.50500 22.48075
Ar 16.84574 2.46872 2.28047
Ar 19.58994 0.20526 2.00712
Ar 19.06353 1.98712 21.90460
Ar 18.69392 0.77860 5.43889
Ar 16.81538 2.65510 7.68748
Ar 21.02681 2.31189 7.25205
Ar 20.03570 3.97232 3.99584
Ar 17.66506 0.78678 10.90489
Ar 18.01690 3.84168 14.68080
Ar 19.93667 0.13157 14.27906
Ar 20.26190 3.30617 11.55048
Ar 16.38390 0.16535 18.12830
Ar 15.87875 2.71580 20.55227
Ar 20.69336 22.11104 19.69353
Ar 19.69344 1.83671 16.99594
Ar 16.14217 5.72959 22.55309
Ar 17.11110 8.75189 1.63033
Ar 19.33838 5.03995 0.71860
Ar 19.48911 8.41596 21.95176
Ar 17.00412 5.56894 5.04758
Ar 17.19372 7.18801 8.08753
Ar 20.11643 5.43516 7.68609
Ar 20.26717 8.29559 5.39013
Ar 16.87925 4.46505 10.40369
Ar 17.37628 7.52114 13.72318
Ar 20.68902 6.13300 15.23768
Ar 20.29427 8.66969 11.40710
Ar 17.19871 5.13043 18.14898
Ar 15.91106 8.44845 20.00593
Ar 21.36589 2.79410 19.44605
Ar 19.27637 8.82636 17.31123
Ar 15.66191 11.55798 0.26429
Ar 16.75190 13.94066 2.78819
Ar 19.66765 11.23201 2.59781
Ar 19.73413 13.90718 22.01255
Ar 16.76093 10.27827 6.08553
Ar 16.96824 14.44711 9.21790
Ar 19.95060 11.36581 8.47697
Ar 19.32939 13.74440 5.87941
Ar 17.20517 10.80667 11.04436
Ar 15.33931 14.04587 14.68839
Ar 18.68527 11.07041 14.22087
Ar 19.12358 14.07595 12.12783
Ar 16.23215 11.39090 16.94684
Ar 16.63159 13.87247 19.84177
Ar 19.62972 11.90528 19.16998
Ar 18.72219 14.21299 16.04665
Ar 17.37892 16.30589 0.31665
Ar 17.86207 20.39821 3.33534
Ar 20.31599 15.51552 2.43311
Ar 18.81491 19.69574 22.71025
Ar 18.67920 17.42041 6.48339
Ar 18.09676 21.29907 8.54546
Ar 19.35883 16.99722 9.99089
Ar 21.42185 19.24043 4.22865
Ar 16.67445 17.34766 11.88627
Ar 17.24633 20.62408 13.96073
Ar 19.69513 17.29335 14.69153
Ar 20.76704 19.84483 10.82195
Ar 16.76635 17.03670 17.50265
Ar 16.71408 19.95465 20.12539
Ar 19.35992 16.75195 19.80211
Ar 19.38870 20.17023 16.81745
256
frame 29
Ar 22.62827 0.32870 21.95822
Ar 0.08123 3.22114 1.20226
Ar 2.55730 22.59711 3.16364
Ar 3.38101 2.30193 0.74179
Ar 22.25871 1.13597 4.20253
Ar 0.97068 3.41901 9.46902
Ar 2.69742 0.31118 8.67439
Ar 3.71341 2.04016 5.73180
Ar 0.03966 22.63262 10.65438
Ar 22.67395 2.68609 14.54079
Ar 2.21413 22.66137 14.11722
Ar 3.04786 2.50739 12.10951
Ar 0.38272 0.28906 17.00883
Ar 2.04680 3.26651 20.47660
Ar 2.83566 22.50094 20.36409
Ar 3.25007 3.32995 17.12114
Ar 0.31836 6.29035 21.86553
Ar 22.02591 7.71976 2.04274
Ar 2.33081 6.07323 2.69998
Ar 3.20679 8.72270 0.17154
Ar 0.70341 4.64811 5.94644
Ar 22.49596 7.92461 8.11411
Ar 3.68632 6.08609 7.93115
Ar 1.89972 8.16983 5.64031
Ar 22.55737 5.78969 12.14687
Ar 0.25668 9.04143 14.72347
Ar 3.04586 5.49040 14.62876
Ar 1.96632 8.62057 11.90052
Ar 0.48634 5.77343 17.77281
Ar 22.30528 9.00973 19.34408
Ar 3.21272 6.72520 20.07373
Ar 3.29950 8.68103 16.47080
Ar 22.27872 10.89186 22.37135
Ar 1.60898 13.60947 3.18249
Ar 3.47548 10.66604 3.51728
Ar 3.24961 13.67031 22.03302
Ar 22.79632 11.08244 5.88007
Ar 21.65383 14.15631 9.26918
Ar 3.40194 11.17207 9.53822
Ar 2.67185 13.82054 6.59006
Ar 22.45487 11.35804 11.80167
Ar 22.53158 14.10439 14.71908
Ar 3.13985 11.77314 13.66399
Ar 2.86076 14.78916 10.86476
Ar 0.46807 11.66096 16.99328
Ar 22.67318 14.52962 19.43515
Ar 3.18171 10.59213 19.56022
Ar 3.38295 14.40332 17.33474
Ar 0.80032 16.38100 22.78086
Ar 0.01654 20.65941 1.52889
Ar 3.23186 16.65338 2.87089
Ar 2.99736 19.76862 0.25379
Ar 22.25141 16.25928 5.68686
Ar 22.34829 21.72470 6.82288
Ar 1.93828 17.46522 8.09473
Ar 1.85506 19.51219 5.29313
Ar 22.64770 16.84316 11.93229
Ar 22.53114 20.22768 14.10414
Ar 2.49275 16.30530 14.19910
Ar 2.13422 19.72571 11.43662
Ar 22.28593 17.48937 16.81163
Ar 22.10967 18.99396 20.94635
Ar 2.85905 17.38250 20.10911
Ar 2.33374 19.64301 17.41433
Ar 5.62894 22.49334 0.98485
Ar 6.58470 3.53957 3.39456
Ar 8.21255 0.47746 3.26348
Ar 7.96547 2.94398 0.32583
Ar 6.11102 22.08177 5.64632
Ar 5.24402 2.59190 9.30523
Ar 8.66321 22.59107 8.35745
Ar 8.13591 2.73434 6.56221
Ar 5.25459 22.64116 12.09615
Ar 6.32106 2.51988 14.49163
Ar 8.26821 22.16262 14.87170
Ar 8.48556 2.30478 11.05477
Ar 5.30749 21.73385 17.40278
Ar 5.50649 2.10652 20.52969
Ar 8.30810 0.57266 20.43524
Ar 7.81958 2.91972 17.73595
Ar 5.04702 5.69297 0.18186
Ar 7.12707 8.12403 1.72204
Ar 9.22719 6.09132 3.51795
Ar 10.14637 8.89989 22.11612
Ar 5.73485 6.45061 5.01897
Ar 6.04431 8.57854 8.66126
Ar 8.74096 5.67745 8.81938
Ar 9.30375 8.40630 6.33611
Ar 4.79555 5.70319 11.12106
Ar 5.74125 8.67916 12.72300
Ar 8.39220 5.87160 13.18289
Ar 8.78845 9.00297 10.99152
Ar 5.99808 6.31826 17.02737
Ar 6.38605 8.69192 19.90327
Ar 8.69417 5.98521 19.93815
Ar 8.21490 8.56805 16.38372
Ar 7.14164 11.46940 22.74943
Ar 5.66225 14.15202 4.44172
Ar 8.62438 11.18868 3.49810
Ar 8.80907 14.54544 2.33251
Ar 5.43218 11.53682 6.70604
Ar 6.09624 14.38110 8.61798
Ar 10.45170 13.39903 8.96236
Ar 9.10665 15.13810 6.08740
Ar 6.97361 12.30813 11.71033
Ar 5.61697 14.11821 14.57834
Ar 8.71000 11.00440 14.29974
Ar 8.11441 15.52471 11.85439
Ar 5.76653 11.12649 16.46789
Ar 6.08146 15.10887 20.48823
Ar 8.34388 11.56027 18.96144
Ar 8.79743 15.06914 16.67839
Ar 6.46427 16.58903 0.88370
Ar 4.84901 19.84691 3.32707
Ar 7.72296 17.61654 4.08436
Ar 8.57830 19.82925 1.20116
Ar 4.78017 17.55124 6.04230
Ar 4.69064 20.15795 8.86653
Ar 8.09606 17.59083 8.74791
Ar 9.33641 20.05787 5.87035
Ar 5.62828 17.92100 11.25466
Ar 4.91470 20.02448 14.33362
Ar 8.51292 17.75870 14.63359
Ar 8.52419 19.83946 11.40854
Ar 5.98464 17.16747 17.26049
Ar 6.32727 20.44861 20.57664
Ar 8.70325 17.51524 20.08098
Ar 8.59274 20.43074 17.80815
Ar 10.70403 0.20631 0.63341
Ar 11.07882 2.91435 2.88976
Ar 14.57186 22.66278 2.76275
Ar 13.79228 2.47261 0.36644
Ar 11.51985 0.34693 5.81492
Ar 11.68377 2.22217 8.83541
Ar 14.50940 0.14206 7.64372
Ar 14.40620 3.10406 5.09723
Ar 11.13710 0.03674 11.93591
Ar 10.77001 2.72984 14.67669
Ar 15.72498 1.18742 14.73284
Ar 14.23475 2.32453 11.58012
Ar 11.52664 22.70067 17.24250
Ar 10.53427 2.82834 20.85400
Ar 13.48376 22.06174 20.41546
Ar 13.34631 2.77327 17.66820
Ar 11.50238 5.72131 0.63613
Ar 11.37287 8.74515 3.31280
Ar 14.52311 6.68042 2.67872
Ar 13.48552 8.82630 22.54877
Ar 11.52155 4.62227 6.14910
Ar 12.33499 8.44424 8.81518
Ar 14.25372 5.15421 8.41315
Ar 14.03366 7.54663 5.86975
Ar 11.73502 5.38025 11.02319
Ar 11.61238 7.95975 14.66217
Ar 14.50015 5.05314 14.71497
Ar 14.90244 7.78759 10.98661
Ar 10.91681 5.20933 17.22213
Ar 11.40228 8.63519 18.62505
Ar 13.18073 5.71764 19.91779
Ar 14.33955 8.03218 16.77450
Ar 10.41370 11.94915 0.49260
Ar 13.37612 13.93892 2.28642
Ar 14.11615 10.64382 3.55673
Ar 14.13377 15.58485 22.13576
Ar 11.50454 11.00394 6.35467
Ar 12.94684 16.16737 8.09541
Ar 14.29346 11.41569 8.86867
Ar 15.67987 14.39263 6.27977
Ar 11.58315 11.53976 11.51639
Ar 11.87270 13.93248 14.26527
Ar 14.60077 10.09188 13.56367
Ar 14.08536 14.36942 11.21389
Ar 12.27906 11.13299 16.09502
Ar 11.25070 14.11971 20.16528
Ar 13.81713 11.10889 19.60416
Ar 13.74878 14.64226 17.73109
Ar 11.17785 17.69747 0.27684
Ar 11.17340 20.55756 2.97982
Ar 15.52213 17.47477 3.30663
Ar 14.29644 19.48228 0.59238
Ar 12.04599 17.19768 4.44844
Ar 11.95296 20.41271 8.60897
Ar 15.31735 18.49463 7.81759
Ar 13.89898 20.32720 5.00265
Ar 11.58536 17.16362 11.51584
Ar 11.47247 20.14889 13.86969
Ar 13.97293 17.29405 14.24918
Ar 14.96209 20.92998 10.95060
Ar 11.36730 18.12383 16.92932
Ar 10.01491 20.39741 20.87973
Ar 13.75221 18.38145 19.93671
Ar 15.01534 20.39182 16.62191
Ar 16.20138 22.55003 22.44852
Ar 16.86883 2.49626 2.22630
Ar 19.60313 0.25670 1.92998
Ar 19.17236 2.14967 21.81533
Ar 18.66264 0.80381 5.40808
Ar 16.73536 2.67228 7.56784
Ar 21.11021 2.34108 7.23133
Ar 20.04205 3.98488 4.11559
Ar 17.74567 0.73550 10.95738
Ar 18.05245 3.89355 14.61912
Ar 20.01499 0.14007 14.27976
Ar 20.30117 3.30937 11.58124
Ar 16.34937 0.14583 18.07360
Ar 15.85465 2.61823 20.53784
Ar 20.65275 22.03824 19.58180
Ar 19.65837 1.83035 16.97337
Ar 16.10787 5.74123 22.64341
Ar 17.12709 8.75512 1.61655
Ar 19.39006 4.95899 0.70884
Ar 19.37214 8.35680 21.95277
Ar 16.84912 5.48649 4.98095
Ar 17.19024 7.09247 8.07754
Ar 20.08204 5.40210 7.80958
Ar 20.15989 8.39861 5.41747
Ar 17.07219 4.40196 10.41888
Ar 17.38570 7.62920 13.78117
Ar 20.69425 6.15519 15.26294
Ar 20.33647 8.66980 11.46829
Ar 17.16973 5.05509 18.22870
Ar 15.86249 8.37011 20.05055
Ar 21.38242 2.83741 19.42030
Ar 19.19006 8.81887 17.32654
Ar 15.58036 11.45937 0.19017
Ar 16.79655 13.93830 2.82705
Ar 19.67361 11.23144 2.60492
Ar 19.76764 13.88546 21.99137
Ar 16.82091 10.23575 6.14800
Ar 17.05216 14.40694 9.21948
Ar 19.99569 11.33648 8.46534
Ar 19.34411 13.68484 5.94761
Ar 17.19246 10.74276 10.99822
Ar 15.30510 14.02208 14.59160
Ar 18.71635 11.05759 14.20007
Ar 19.13371 14.24166 12.02312
Ar 16.12482 11.38455 16.97695
Ar 16.61460 13.94013 19.80090
Ar 19.53168 11.88451 19.22377
Ar 18.79384 14.12823 16.01604
Ar 17.29530 16.30943 0.33204
Ar 18.05242 20.36112 3.33752
Ar 20.41994 15.50828 2.46161
Ar 18.84078 19.62685 22.76267
Ar 18.63903 17.36243 6.49959
Ar 18.01244 21.32829 8.57895
Ar 19.25375 16.96523 10.01850
Ar 21.38632 19.19141 4.31456
Ar 16.63815 17.34871 11.97968
Ar 17.28227 20.49079 13.98819
Ar 19.54350 17.27912 14.76876
Ar 20.62677 19.86040 10.65597
Ar 16.70868 17.22278 17.55544
Ar 16.80647 20.03630 20.23043
Ar 19.41819 16.77957 19.90553
Ar 19.42915 20.11522 16.83947
256
frame 30
Ar 22.65744 0.29598 21.89563
Ar 0.02944 3.17752 1.19970
Ar 2.58172 22.53379 3.14912
Ar 3.35790 2.22490 0.74865
Ar 22.35673 1.19588 4.12595
Ar 0.92187 3.48590 9.49337
Ar 2.67345 0.23275 8.63816
Ar 3.71619 2.11130 5.69946
Ar 0.03590 22.70077 10.61082
Ar 22.70665 2.62217 14.49576
Ar 2.16841 22.73306 14.00487
Ar 3.13098 2.59186 12.25273
Ar 0.32240 0.27636 17.01731
Ar 2.03669 3.35983 20.53422
Ar 2.79027 22.47424 20.34864
Ar 3.35774 3.39437 17.03752
Ar 0.27943 6.22597 21.88811
Ar 21.93376 7.61628 2.07299
Ar 2.37146 6.15378 2.64385
Ar 3.33250 8.72241 0.19099
Ar 0.80907 4.65263 5.89591
Ar 22.42594 7.84020 8.12632
Ar 3.75056 6.09440 7.90584
Ar 1.94936 8.14563 5.59333
Ar 22.45953 5.68523 12.09548
Ar 0.22792 9.04597 14.68481
Ar 3.12012 5.53582 14.68093
Ar 1.97503 8.67253 11.89646
Ar 0.55018 5.81135 17.83004
Ar 22.34343 8.96021 19.31205
Ar 3.15317 6.79345 20.02913
Ar 3.37013 8.58444 16.45713
Ar 22.46994 10.89905 22.50357
Ar 1.73576 13.60069 3.15532
Ar 3.55209 10.61193 3.63035
Ar 3.25780 13.66301 21.97558
Ar 0.03612 11.10654 5.80403
Ar 21.58829 14.12797 9.31452
Ar 3.39085 11.20256 9.51809
Ar 2.54758 13.78532 6.58168
Ar 22.46650 11.33506 11.83058
Ar 22.54419 14.25200 14.72156
Ar 3.13070 11.84906 13.76186
Ar 2.85425 14.74809 10.89890
Ar 0.44712 11.85825 17.00514
Ar 22.71256 14.49412 19.40873
Ar 3.25448 10.48103 19.56222
Ar 3.30108 14.38982 17.31126
Ar 0.86502 16.29922 22.80124
Ar 0.07692 20.70660 1.56145
Ar 3.17735 16.64576 2.87947
Ar 2.92843 19.79170 0.20450
Ar 22.25930 16.22280 5.76167
Ar 22.21884 21.80676 6.92200
Ar 1.86227 17.41577 8.13560
Ar 1.78283 19.50492 5.27796
Ar 22.64771 16.87901 11.91258
Ar 22.43193 20.25186 14.05869
Ar 2.60996 16.29012 14.09509
Ar 2.22322 19.70560 11.54396
Ar 22.27936 17.50914 16.70680
Ar 22.04840 19.02560 20.83485
Ar 2.81271 17.42032 20.20065
Ar 2.17067 19.65207 17.30703
Ar 5.48633 22.42619 0.96163
Ar 6.63803 3.65029 3.50119
Ar 8.29699 0.41574 3.26712
Ar 7.86795 3.06523 0.37691
Ar 6.07343 22.16794 5.68492
Ar 5.24747 2.66357 9.31593
Ar 8.70200 22.51252 8.40313
Ar 8.11770 2.73743 6.50579
Ar 5.26806 22.60245 12.15341
Ar 6.36649 2.40080 14.54540
Ar 8.12440 22.07722 14.78852
Ar 8.57108 2.35571 11.13307
Ar 5.42559 21.82818 17.50103
Ar 5.45330 2.03832 20.57270
Ar 8.42389 0.50751 20.54278
Ar 7.77950 2.86585 17.72538
Ar 5.14410 5.63306 0.12179
Ar 7.18875 8.10324 1.74171
Ar 9.20458 6.07670 3.58964
Ar 10.17132 8.92848 22.14872
Ar 5.69184 6.46942 5.02154
Ar 6.03606 8.50980 8.63495
Ar 8.68776 5.65192 8.81279
Ar 9.13397 8.35350 6.40436
Ar 4.73603 5.84759 11.13044
Ar 5.70283 8.64212 12.63596
Ar 8.32783 5.91451 13.07598
Ar 8.82040 9.04390 11.01971
Ar 5.93847 6.31106 17.05972
Ar 6.29723 8.81053 19.80621
Ar 8.75738 6.00175 19.96751
Ar 8.32308 8.57517 16.37522
Ar 7.24578 11.51273 22.81898
Ar 5.76026 14.13781 4.46390
Ar 8.50615 11.09140 3.49753
Ar 8.84729 14.41272 2.35797
Ar 5.37796 11.54080 6.74770
Ar 6.20548 14.42134 8.67820
Ar 10.48422 13.47066 8.94876
Ar 9.07770 15.15426 6.06731
Ar 6.92395 12.28317 11.56917
Ar 5.68822 14.18871 14.43441
Ar 8.69537 11.16066 14.19147
Ar 8.21134 15.55300 11.85157
Ar 5.72748 11.00305 16.52447
Ar 6.18810 15.07580 20.52934
Ar 8.25510 11.66489 18.92494
Ar 8.67839 15.07244 16.65225
Ar 6.32473 16.51137 0.87972
Ar 4.82155 19.74606 3.27229
Ar 7.71836 17.52416 4.16110
Ar 8.49207 19.86156 1.30025
Ar 4.78556 17.59659 6.02896
Ar 4.67312 20.15989 8.85406
Ar 8.10779 17.51329 8.68841
Ar 9.30277 20.09583 5.82361
Ar 5.53445 17.97729 11.28631
Ar 4.86124 20.08313 14.23181
Ar 8.54484 17.71105 14.61784
Ar 8.56661 19.85574 11.46848
Ar 5.96429 17.23725 17.18061
Ar 6.27772 20.41903 20.65005
Ar 8.72573 17.48743 20.07193
Ar 8.62146 20.33943 17.76141
Ar 10.81234 0.16855 0.67629
Ar 11.00607 3.00929 2.99985
Ar 14.55596 22.72190 2.80695
Ar 13.77906 2.58061 0.37637
Ar 11.59326 0.32762 5.77301
Ar 11.78416 2.23371 8.90847
Ar 14.67613 0.13510 7.70681
Ar 14.40630 3.13909 5.16302
Ar 11.10790 0.00055 11.92505
Ar 10.78628 2.81742 14.64686
Ar 15.64604 1.14866 14.81307
Ar 14.14977 2.28553 11.48994
Ar 11.52307 22.65437 17.18218
Ar 10.61694 2.81842 20.77072
Ar 13.54109 22.05194 20.46704
Ar 13.41456 2.87336 17.74637
Ar 11.44382 5.62216 0.65636
Ar 11.40412 8.66083 3.42574
Ar 14.54980 6.77426 2.72057
Ar 13.58149 8.74703 22.54117
Ar 11.63491 4.57479 6.08787
Ar 12.25367 8.59383 8.78127
Ar 14.16211 5.18446 8.40311
Ar 13.90102 7.53838 5.81961
Ar 11.74034 5.40478 11.03272
Ar 11.64613 7.93813 14.69573
Ar 14.46310 5.02411 14.69301
Ar 14.92683 7.75079 11.09063
Ar 11.00323 5.18000 17.13764
Ar 11.32796 8.63155 18.48650
Ar 13.18587 5.63051 19.86714
Ar 14.36880 8.03837 16.70599
Ar 10.41612 11.91485 0.54223
Ar 13.33329 13.99276 2.31358
Ar 14.15593 10.60712 3.51681
Ar 14.05535 15.55184 22.13288
Ar 11.47768 11.09604 6.33977
Ar 12.89033 16.19027 8.07549
Ar 14.43252 11.46648 8.97268
Ar 15.75345 14.45347 6.22727
Ar 11.52916 11.59359 11.51919
Ar 11.86949 13.98023 14.17923
Ar 14.57566 10.06493 13.53264
Ar 14.16724 14.34467 11.14071
Ar 12.37388 11.15195 16.15998
Ar 11.11386 14.03353 20.08522
Ar 13.79260 11.18267 19.55867
Ar 13.69903 14.59552 17.73218
Ar 11.18037 17.75240 0.25964
Ar 11.09748 20.53077 2.99688
Ar 15.54684 17.52176 3.40310
Ar 14.28848 19.51491 0.57216
Ar 12.07721 17.23420 4.46456
Ar 12.03951 20.38828 8.59880
Ar 15.42444 18.57621 7.82252
Ar 13.87305 20.24922 5.03403
Ar 11.61073 17.20483 11.43013
Ar 11.43150 20.14297 13.78198
Ar 13.84708 17.31317 14.21128
Ar 14.90356 20.85371 10.98087
Ar 11.38676 18.22850 16.87245
Ar 9.97506 20.35029 21.05327
Ar 13.74272 18.45715 19.96703
Ar 15.02997 20.30768 16.52474
Ar 16.18840 22.60380 22.45095
Ar 16.90069 2.54691 2.17634
Ar 19.63968 0.30930 1.83683
Ar 19.25343 2.26127 21.72051
Ar 18.61545 0.79761 5.35256
Ar 16.69527 2.70143 7.44857
Ar 21.21208 2.32748 7.24771
Ar 20.05292 4.00541 4.23630
Ar 17.81846 0.72088 11.05871
Ar 18.08105 3.95197 14.53913
Ar 20.10111 0.10608 14.20005
Ar 20.33402 3.28534 11.60712
Ar 16.35256 0.17293 18.04970
Ar 15.83506 2.54376 20.49532
Ar 20.56963 21.95141 19.43792
Ar 19.55515 1.82719 16.94994
Ar 16.06560 5.73908 22.70129
Ar 17.14130 8.75223 1.64108
Ar 19.46606 4.92277 0.72658
Ar 19.27932 8.29618 21.92225
Ar 16.73263 5.40926 4.90959
Ar 17.16887 7.04124 8.07855
Ar 20.04850 5.38701 7.94220
Ar 20.04218 8.50073 5.43647
Ar 17.27782 4.36056 10.48754
Ar 17.39712 7.73093 13.84367
Ar 20.70286 6.18087 15.28770
Ar 20.36239 8.65017 11.52661
Ar 17.14113 4.98695 18.30092
Ar 15.85184 8.27618 20.08697
Ar 21.49100 2.93505 19.44590
Ar 19.09273 8.80604 17.33746
Ar 15.50929 11.41231 0.10165
Ar 16.86730 13.91685 2.87933
Ar 19.68374 11.23571 2.61385
Ar 19.80915 13.86380 21.99814
Ar 16.88436 10.20073 6.21001
Ar 17.15202 14.34867 9.25693
Ar 20.02326 11.25844 8.45980
Ar 19.35884 13.63262 6.00145
Ar 17.18281 10.68251 10.94063
Ar 15.31001 13.98486 14.48749
Ar 18.75676 11.03911 14.18338
Ar 19.15375 14.37509 11.96447
Ar 16.03086 11.37418 16.99940
Ar 16.59877 14.01266 19.76640
Ar 19.44173 11.84777 19.25611
Ar 18.86360 14.03443 16.00503
Ar 17.23784 16.33429 0.33566
Ar 18.21680 20.30847 3.36168
Ar 20.52490 15.50258 2.49458
Ar 18.91160 19.55538 0.02799
Ar 18.59599 17.30565 6.50241
Ar 17.92699 21.31722 8.55867
Ar 19.18222 16.91833 9.99089
Ar 21.30893 19.16182 4.39238
Ar 16.56917 17.35222 12.09286
Ar 17.32442 20.35624 13.99080
Ar 19.37404 17.26901 14.80455
Ar 20.51022 19.92294 10.50988
Ar 16.64454 17.40530 17.59964
Ar 16.88808 20.10629 20.27020
Ar 19.47634 16.81208 20.00430
Ar 19.46780 20.06702 16.87343
256
frame 31
Ar 22.67564 0.28484 21.85127
Ar 22.78190 3.15223 1.19801
Ar 2.61739 22.47193 3.14727
Ar 3.33742 2.17390 0.76410
Ar 22.45752 1.25184 4.04130
Ar 0.88028 3.55808 9.51486
Ar 2.67317 0.15972 8.57586
Ar 3.71877 2.19985 5.66433
Ar 22.81795 22.77530 10.60509
Ar 22.73633 2.59150 14.43990
Ar 2.12536 22.76961 13.90652
Ar 3.21338 2.71867 12.38668
Ar 0.25955 0.25100 17.05337
Ar 2.02548 3.45102 20.58336
Ar 2.76625 22.43114 20.31601
Ar 3.47561 3.39137 17.01828
Ar 0.22259 6.15993 21.91004
Ar 21.82624 7.52447 2.11842
Ar 2.42019 6.21701 2.58306
Ar 3.45433 8.74405 0.21696
Ar 0.91406 4.65836 5.83876
Ar 22.36650 7.77353 8.16782
Ar 3.77514 6.06974 7.86426
Ar 2.01234 8.11749 5.53694
Ar 22.41567 5.63474 12.05722
Ar 0.16491 9.04844 14.68441
Ar 3.18050 5.63182 14.65288
Ar 2.02003 8.70267 11.84982
Ar 0.61160 5.84086 17.87465
Ar 22.38279 8.91569 19.28022
Ar 3.12036 6.86372 19.96183
Ar 3.40576 8.48474 16.44484
Ar 22.66208 10.90723 22.63868
Ar 1.83332 13.57370 3.11214
Ar 3.64433 10.55425 3.73517
Ar 3.25828 13.64600 21.92197
Ar 0.08862 11.14437 5.72735
Ar 21.55004 14.13094 9.35740
Ar 3.36449 11.23306 9.52228
Ar 2.42270 13.76296 6.59238
Ar 22.48468 11.35248 11.85915
Ar 22.53998 14.41562 14.69955
Ar 3.10767 11.91505 13.85764
Ar 2.85118 14.70030 10.92051
Ar 0.43667 12.02681 17.03708
Ar 22.75054 14.46850 19.38973
Ar 3.30341 10.39234 19.56670
Ar 3.21712 14.37437 17.29429
Ar 0.90630 16.21058 0.02144
Ar 0.07537 20.74930 1.61681
Ar 3.12660 16.65849 2.88426
Ar 2.90265 19.79787 0.12803
Ar 22.27591 16.14774 5.84767
Ar 22.08907 21.86680 7.03386
Ar 1.78582 17.35962 8.20689
Ar 1.72853 19.50916 5.25680
Ar 22.63132 16.91537 11.88640
Ar 22.32672 20.25645 14.01750
Ar 2.74256 16.29348 14.00747
Ar 2.31129 19.68742 11.64912
Ar 22.27804 17.51553 16.61499
Ar 22.01235 19.06464 20.72753
Ar 2.78479 17.45731 20.26943
Ar 2.02128 19.67747 17.19609
Ar 5.37681 22.34327 0.92513
Ar 6.66510 3.72886 3.59331
Ar 8.39852 0.35189 3.26499
Ar 7.78502 3.18202 0.41157
Ar 6.02320 22.24626 5.74488
Ar 5.26387 2.73815 9.31557
Ar 8.74283 22.43307 8.46489
Ar 8.11042 2.73833 6.46151
Ar 5.30616 22.58990 12.15889
Ar 6.39938 2.29363 14.58347
Ar 7.98802 21.99396 14.68425
Ar 8.64736 2.41976 11.21266
Ar 5.52756 21.94156 17.59107
Ar 5.37069 1.99507 20.61011
Ar 8.50753 0.38161 20.63546
Ar 7.75038 2.81648 17.72605
Ar 5.24259 5.55316 0.05623
Ar 7.23598 8.10342 1.74663
Ar 9.18365 6.03004 3.67777
Ar 10.15965 8.89008 22.14979
Ar 5.64478 6.53164 5.03012
Ar 6.04568 8.45562 8.61893
Ar 8.63176 5.62160 8.81358
Ar 8.95687 8.30126 6.47503
Ar 4.67278 5.95004 11.15440
Ar 5.66555 8.65401 12.58574
Ar 8.26480 5.95249 12.97197
Ar 8.87242 9.08181 11.03872
Ar 5.86597 6.25704 17.10455
Ar 6.22366 8.91507 19.71802
Ar 8.81975 6.01776 20.00120
Ar 8.46051 8.57410 16.37742
Ar 7.27614 11.54956 0.04580
Ar 5.85593 14.13988 4.47138
Ar 8.38138 10.98095 3.51976
Ar 8.89001 14.30525 2.38937
Ar 5.34453 11.52166 6.77094
Ar 6.30857 14.47132 8.73813
Ar 10.50117 13.56617 8.92052
Ar 9.06862 15.13646 6.06522
Ar 6.84547 12.24745 11.39258
Ar 5.77486 14.27519 14.29320
Ar 8.71077 11.33308 14.09444
Ar 8.32063 15.57840 11.84154
Ar 5.69097 10.91053 16.57506
Ar 6.29364 15.02621 20.54410
Ar 8.18537 11.78104 18.89474
Ar 8.57869 15.02632 16.65460
Ar 6.17723 16.45104 0.88376
Ar 4.81767 19.65013 3.20667
Ar 7.70477 17.44831 4.19453
Ar 8.29983 19.87978 1.37138
Ar 4.79377 17.62422 6.04602
Ar 4.66330 20.17432 8.81149
Ar 8.12654 17.44723 8.61715
Ar 9.26299 20.13752 5.81017
Ar 5.43127 17.99948 11.34391
Ar 4.80301 20.09245 14.17249
Ar 8.57367 17.71249 14.57819
Ar 8.61529 19.88548 11.52961
Ar 5.92356 17.32242 17.10822
Ar 6.21547 20.37495 20.74089
Ar 8.73766 17.40891 20.04368
Ar 8.65196 20.23841 17.71516
Ar 10.92752 0.15080 0.69079
Ar 10.93358 3.08165 3.10817
Ar 14.53181 22.79579 2.84655
Ar 13.73469 2.69576 0.40315
Ar 11.65701 0.31248 5.71964
Ar 11.86623 2.24392 8.97185
Ar 14.81304 0.08268 7.77773
Ar 14.36988 3.10285 5.16433
Ar 11.08103 0.00171 11.88067
Ar 10.79945 2.88654 14.59506
Ar 15.56130 1.11150 14.87196
Ar 14.08077 2.24863 11.41092
Ar 11.51544 22.59912 17.11932
Ar 10.77478 2.87458 20.68577
Ar 13.56141 22.04757 20.49780
Ar 13.51183 2.93966 17.81503
Ar 11.38898 5.53246 0.66170
Ar 11.41879 8.58043 3.52029
Ar 14.53087 6.85369 2.71641
Ar 13.64708 8.63078 22.55788
Ar 11.67182 4.56592 6.04628
Ar 12.15226 8.73267 8.76245
Ar 14.07865 5.19978 8.41257
Ar 13.76253 7.55883 5.81869
Ar 11.73842 5.43083 11.05636
Ar 11.64921 7.90673 14.69597
Ar 14.42122 4.98901 14.66422
Ar 14.95475 7.68290 11.17356
Ar 11.05848 5.18482 17.05065
Ar 11.24160 8.62491 18.36713
Ar 13.20124 5.56055 19.84709
Ar 14.43682 8.04091 16.65757
Ar 10.51708 11.94181 0.61232
Ar 13.27098 14.04432 2.35845
Ar 14.22933 10.58687 3.47891
Ar 13.95969 15.51479 22.10597
Ar 11.45874 11.20145 6.31164
Ar 12.81906 16.20238 8.05249
Ar 14.55964 11.52285 9.05690
Ar 15.79792 14.51904 6.14249
Ar 11.48991 11.61437 11.54973
Ar 11.83512 14.05484 14.08804
Ar 14.54812 10.07058 13.52006
Ar 14.23354 14.32904 11.07033
Ar 12.46157 11.17881 16.23394
Ar 10.96400 13.94658 20.01495
Ar 13.74427 11.26697 19.54078
Ar 13.64874 14.55740 17.71987
Ar 11.18706 17.78063 0.25189
Ar 11.10598 20.51008 3.03875
Ar 15.58356 17.55662 3.50325
Ar 14.28905 19.55638 0.55831
Ar 12.09054 17.25585 4.47921
Ar 12.11970 20.36154 8.58802
Ar 15.54531 18.66640 7.83659
Ar 13.85911 20.16693 5.10306
Ar 11.62551 17.24684 11.33580
Ar 11.40005 20.09740 13.72951
Ar 13.71275 17.33571 14.19831
Ar 14.84479 20.77842 11.01582
Ar 11.41786 18.32328 16.82929
Ar 9.99448 20.34248 21.22743
Ar 13.71726 18.52223 19.98158
Ar 14.99373 20.20699 16.42643
Ar 16.21825 22.66322 22.50693
Ar 16.93787 2.61689 2.13247
Ar 19.69552 0.35871 1.73377
Ar 19.28788 2.30201 21.62047
Ar 18.56889 0.76505 5.27756
Ar 16.72882 2.77211 7.37634
Ar 21.31510 2.28825 7.28697
Ar 20.06575 4.03657 4.35275
Ar 17.88170 0.72525 11.19401
Ar 18.09493 4.00978 14.44392
Ar 20.18367 0.04915 14.06806
Ar 20.35500 3.20020 11.62715
Ar 16.38238 0.21160 18.04827
Ar 15.81757 2.50257 20.43993
Ar 20.46869 21.88697 19.30599
Ar 19.42094 1.83310 16.94950
Ar 16.02693 5.71501 22.72628
Ar 17.15623 8.75439 1.70273
Ar 19.55747 4.94620 0.78433
Ar 19.21612 8.23432 21.85687
Ar 16.68781 5.36179 4.84375
Ar 17.11856 7.03124 8.08484
Ar 20.02162 5.36401 8.08091
Ar 19.92343 8.59721 5.44944
Ar 17.45942 4.33744 10.57349
Ar 17.40997 7.81836 13.91151
Ar 20.71830 6.21013 15.31366
Ar 20.37011 8.60989 11.58117
Ar 17.11541 4.92960 18.36092
Ar 15.87739 8.17839 20.09627
Ar 21.66174 3.06263 19.45774
Ar 18.98641 8.78733 17.34533
Ar 15.46130 11.42782 0.00654
Ar 16.95401 13.87921 2.93232
Ar 19.69893 11.24479 2.62445
Ar 19.85699 13.84474 22.03485
Ar 16.94200 10.17688 6.27079
Ar 17.23973 14.25545 9.28715
Ar 20.03698 11.13130 8.46125
Ar 19.37492 13.58934 6.03883
Ar 17.19186 10.62283 10.88557
Ar 15.35166 13.93934 14.38773
Ar 18.80518 11.01733 14.16497
Ar 19.19079 14.44265 12.00007
Ar 15.96577 11.36378 17.00175
Ar 16.58586 14.09062 19.73925
Ar 19.35952 11.79444 19.26753
Ar 18.93006 13.93831 16.01480
Ar 17.20247 16.37208 0.33113
Ar 18.34079 20.25553 3.40565
Ar 20.62817 15.49794 2.52949
Ar 19.01966 19.48207 0.13689
Ar 18.55315 17.24913 6.48758
Ar 17.83732 21.28348 8.49412
Ar 19.14500 16.91896 9.90406
Ar 21.21227 19.14693 4.46122
Ar 16.48756 17.35060 12.20677
Ar 17.38030 20.23209 13.96641
Ar 19.19249 17.25632 14.80427
Ar 20.42176 20.02006 10.38483
Ar 16.58697 17.56594 17.64432
Ar 16.96231 20.16004 20.25234
Ar 19.52026 16.84295 20.09037
Ar 19.49578 20.01485 16.89832
256
frame 32
Ar 22.66707 0.28904 21.81741
Ar 22.69996 3.14860 1.18486
Ar 2.66842 22.41497 3.16718
Ar 3.30879 2.15755 0.78908
Ar 22.55154 1.29530 3.97385
Ar 0.85863 3.62992 9.53436
Ar 2.68606 0.10513 8.49210
Ar 3.72067 2.30152 5.62747
Ar 22.74745 0.03247 10.63310
Ar 22.75945 2.59636 14.38054
Ar 2.08193 22.76156 13.82543
Ar 3.29909 2.88068 12.50356
Ar 0.19806 0.21842 17.10416
Ar 2.04001 3.53269 20.62735
Ar 2.76616 22.37181 20.26189
Ar 3.59721 3.33566 17.04737
Ar 0.15103 6.10358 21.93018
Ar 21.71096 7.44641 2.17993
Ar 2.47373 6.25941 2.51512
Ar 3.57608 8.78360 0.24406
Ar 1.01115 4.66218 5.77718
Ar 22.33306 7.73383 8.22345
Ar 3.75623 6.00633 7.81872
Ar 2.06978 8.08539 5.49097
Ar 22.42834 5.65183 12.03922
Ar 0.08333 9.05209 14.71301
Ar 3.22381 5.74595 14.55440
Ar 2.08598 8.71206 11.77849
Ar 0.66399 5.85529 17.89012
Ar 22.41976 8.88523 19.25290
Ar 3.11821 6.93115 19.89499
Ar 3.38787 8.40551 16.44027
Ar 0.03044 10.91456 22.77310
Ar 1.90396 13.51920 3.05304
Ar 3.75320 10.50227 3.82039
Ar 3.25579 13.61834 21.86959
Ar 0.12619 11.18542 5.64936
Ar 21.53455 14.15197 9.39123
Ar 3.32229 11.26247 9.55158
Ar 2.30660 13.75481 6.62267
Ar 22.50539 11.40561 11.88609
Ar 22.52284 14.58538 14.65390
Ar 3.07332 11.97310 13.95166
Ar 2.85071 14.64379 10.92350
Ar 0.43218 12.14583 17.06919
Ar 22.78292 14.46709 19.39253
Ar 3.29192 10.35319 19.57090
Ar 3.14088 14.36245 17.27920
Ar 0.91745 16.11879 0.08586
Ar 0.01437 20.78232 1.68977
Ar 3.07587 16.69012 2.89120
Ar 2.90700 19.79052 0.03619
Ar 22.29253 16.04634 5.93497
Ar 21.96559 21.88011 7.14382
Ar 1.71706 17.30430 8.30267
Ar 1.69134 19.52091 5.23659
Ar 22.60284 16.95321 11.85461
Ar 22.23453 20.22763 13.97831
Ar 2.88189 16.32010 13.94124
Ar 2.38006 19.67568 11.74367
Ar 22.26456 17.50218 16.53211
Ar 22.01564 19.11400 20.63051
Ar 2.77552 17.49214 20.30420
Ar 1.89924 19.72549 17.08815
Ar 5.31302 22.24802 0.87683
Ar 6.65522 3.75921 3.65200
Ar 8.50080 0.29025 3.26235
Ar 7.73505 3.27814 0.42459
Ar 5.96655 22.31432 5.81408
Ar 5.28774 2.81180 9.30769
Ar 8.78456 22.36152 8.54197
Ar 8.12337 2.72704 6.44698
Ar 5.36334 22.61794 12.10166
Ar 6.41567 2.20649 14.60231
Ar 7.87007 21.90175 14.57104
Ar 8.70898 2.49880 11.28958
Ar 5.61422 22.07011 17.67150
Ar 5.29241 1.96465 20.63873
Ar 8.55091 0.27324 20.71259
Ar 7.73408 2.77131 17.74751
Ar 5.32497 5.47346 22.80697
Ar 7.26696 8.11207 1.73422
Ar 9.16487 5.97475 3.77936
Ar 10.12454 8.81004 22.12969
Ar 5.59599 6.64464 5.03842
Ar 6.06969 8.42315 8.62027
Ar 8.57436 5.58261 8.82563
Ar 8.78801 8.26192 6.53816
Ar 4.59512 5.98480 11.17203
Ar 5.64473 8.74089 12.58345
Ar 8.20404 5.98376 12.87216
Ar 8.93679 9.11406 11.04768
Ar 5.81555 6.17027 17.16184
Ar 6.20519 8.98227 19.64262
Ar 8.87884 6.03372 20.03558
Ar 8.58149 8.56704 16.36852
Ar 7.25027 11.58219 0.07790
Ar 5.94049 14.15268 4.46850
Ar 8.25686 10.86554 3.56592
Ar 8.92604 14.23714 2.43019
Ar 5.33592 11.49141 6.77899
Ar 6.39498 14.52294 8.78505
Ar 10.50497 13.67316 8.89368
Ar 9.08914 15.07331 6.08337
Ar 6.74701 12.19889 11.19916
Ar 5.87139 14.36784 14.15752
Ar 8.74393 11.50923 14.02105
Ar 8.43495 15.59178 11.81869
Ar 5.66643 10.85665 16.61057
Ar 6.39011 14.95186 20.53368
Ar 8.13241 11.90570 18.87161
Ar 8.49670 14.94238 16.68005
Ar 6.03027 16.40435 0.90162
Ar 4.84019 19.56969 3.13667
Ar 7.68183 17.40373 4.17491
Ar 8.04729 19.88703 1.43466
Ar 4.79529 17.63435 6.09598
Ar 4.66713 20.18873 8.74777
Ar 8.15429 17.41101 8.54638
Ar 9.21098 20.17670 5.82873
Ar 5.34185 17.98313 11.41379
Ar 4.74113 20.04875 14.17961
Ar 8.59996 17.75395 14.52807
Ar 8.65535 19.91863 11.57828
Ar 5.86495 17.41967 17.04277
Ar 6.14774 20.31537 20.83955
Ar 8.75610 17.31306 20.00169
Ar 8.67459 20.13893 17.67839
Ar 11.05217 0.15914 0.68355
Ar 10.86256 3.10674 3.19409
Ar 14.49775 0.04956 2.88976
Ar 13.67311 2.81177 0.44034
Ar 11.71450 0.30323 5.66397
Ar 11.90384 2.25017 8.98980
Ar 14.90790 0.00246 7.85032
Ar 14.30999 2.98248 5.09641
Ar 11.06063 0.02841 11.81079
Ar 10.80935 2.92922 14.51362
Ar 15.47009 1.08132 14.89978
Ar 14.05719 2.21467 11.37315
Ar 11.50873 22.54182 17.05528
Ar 10.96186 2.95513 20.60065
Ar 13.54913 22.05432 20.50992
Ar 13.62705 2.95016 17.84846
Ar 11.33535 5.46141 0.65066
Ar 11.40915 8.52033 3.58838
Ar 14.46702 6.91249 2.67696
Ar 13.67069 8.49011 22.59509
Ar 11.61455 4.60895 6.04667
Ar 12.04124 8.85898 8.76595
Ar 14.01664 5.20327 8.44301
Ar 13.63661 7.59912 5.87584
Ar 11.72553 5.45922 11.09617
Ar 11.63044 7.87185 14.66063
Ar 14.37552 4.94900 14.62895
Ar 14.98062 7.58317 11.22893
Ar 11.08420 5.22493 16.97510
Ar 11.17133 8.61477 18.28669
Ar 13.22429 5.53321 19.87036
Ar 14.53538 8.03696 16.63078
Ar 10.70081 11.99178 0.68640
Ar 13.20012 14.09260 2.42230
Ar 14.32387 10.58040 3.44255
Ar 13.85513 15.47450 22.05624
Ar 11.44201 11.31347 6.26708
Ar 12.75053 16.21667 8.02074
Ar 14.65063 11.57586 9.10030
Ar 15.81712 14.59171 6.05745
Ar 11.46624 11.60928 11.59296
Ar 11.77923 14.14759 14.00213
Ar 14.51756 10.11179 13.52390
Ar 14.27581 14.33494 11.00946
Ar 12.52954 11.22040 16.29539
Ar 10.80826 13.86314 19.95456
Ar 13.67409 11.34895 19.56344
Ar 13.59825 14.53026 17.69237
Ar 11.19779 17.77277 0.26692
Ar 11.16709 20.48634 3.07273
Ar 15.63606 17.57534 3.59952
Ar 14.29951 19.60522 0.55610
Ar 12.08088 17.25325 4.49033
Ar 12.18959 20.33260 8.57463
Ar 15.65838 18.74347 7.86290
Ar 13.85971 20.10724 5.19840
Ar 11.63068 17.28971 11.23331
Ar 11.38145 20.02753 13.70812
Ar 13.57571 17.35192 14.21058
Ar 14.78903 20.70523 11.05850
Ar 11.46551 18.40181 16.80466
Ar 10.05999 20.33590 21.37864
Ar 13.68004 18.57244 19.98059
Ar 14.90354 20.13602 16.32568
Ar 16.28619 22.72001 22.60924
Ar 16.97792 2.70079 2.09513
Ar 19.76514 0.39946 1.62916
Ar 19.28045 2.29327 21.51598
Ar 18.52991 0.71281 5.18862
Ar 16.83256 2.88099 7.36337
Ar 21.40342 2.25643 7.33625
Ar 20.08113 4.07635 4.46361
Ar 17.92709 0.72321 11.33959
Ar 18.09208 4.06365 14.33892
Ar 20.24547 0.00324 13.91841
Ar 20.39242 3.04122 11.64809
Ar 16.42730 0.22572 18.05679
Ar 15.79610 2.49610 20.40554
Ar 20.37147 21.88472 19.23572
Ar 19.28543 1.84548 16.96406
Ar 16.00140 5.66595 22.72216
Ar 17.18050 8.76861 1.78703
Ar 19.65043 5.00737 0.86814
Ar 19.17730 8.17214 21.76505
Ar 16.71285 5.35350 4.78443
Ar 17.04211 7.05171 8.09387
Ar 19.99795 5.31545 8.22202
Ar 19.82164 8.67871 5.45500
Ar 17.58128 4.34207 10.65503
Ar 17.42091 7.88280 13.98385
Ar 20.74015 6.24050 15.34136
Ar 20.36299 8.55501 11.63159
Ar 17.09689 4.88968 18.40221
Ar 15.93405 8.08618 20.06949
Ar 21.84572 3.19823 19.43410
Ar 18.87300 8.76118 17.35091
Ar 15.43617 11.49367 22.73477
Ar 17.05104 13.82953 2.97046
Ar 19.72090 11.25856 2.63638
Ar 19.90938 13.82632 22.09503
Ar 16.97749 10.17372 6.33209
Ar 17.30655 14.12148 9.28449
Ar 20.04573 10.97104 8.47043
Ar 19.39372 13.55230 6.06235
Ar 17.23858 10.55515 10.85073
Ar 15.41982 13.88968 14.29908
Ar 18.86263 10.99571 14.14023
Ar 19.24526 14.45413 12.13281
Ar 15.94298 11.35667 16.98100
Ar 16.57746 14.17325 19.71913
Ar 19.28414 11.73061 19.26554
Ar 18.99405 13.84948 16.04584
Ar 17.17850 16.41371 0.32177
Ar 18.38713 20.22692 3.45737
Ar 20.72834 15.49422 2.56556
Ar 19.15191 19.41057 0.23892
Ar 18.51366 17.19209 6.44587
Ar 17.75798 21.25114 8.40529
Ar 19.13231 16.97945 9.78444
Ar 21.14554 19.12214 4.54038
Ar 16.40979 17.33087 12.29781
Ar 17.44950 20.13820 13.92054
Ar 19.01202 17.22780 14.78041
Ar 20.36376 20.13702 10.28421
Ar 16.55258 17.67733 17.70125
Ar 17.03794 20.20031 20.20481
Ar 19.53844 16.86263 20.16005
Ar 19.50004 19.93233 16.87763
256
frame 33
Ar 22.63466 0.30331 21.78964
Ar 22.61691 3.16717 1.14939
Ar 2.73384 22.36340 3.21029
Ar 3.27107 2.17105 0.82735
Ar 22.63370 1.32022 3.94301
Ar 0.86586 3.69887 9.55087
Ar 2.69263 0.07827 8.39595
Ar 3.72496 2.40973 5.58963
Ar 22.66572 0.12191 10.68394
Ar 22.77666 2.63291 14.32719
Ar 2.04387 22.72001 13.75545
Ar 3.38392 3.04454 12.60426
Ar 0.13997 0.18695 17.15803
Ar 2.11428 3.60251 20.67649
Ar 2.78218 22.29796 20.18690
Ar 3.71327 3.25246 17.09477
Ar 0.06669 6.06915 21.94743
Ar 21.60453 7.39414 2.26327
Ar 2.52824 6.27902 2.43907
Ar 3.70122 8.83833 0.26722
Ar 1.08948 4.66256 5.71141
Ar 22.32919 7.72150 8.28516
Ar 3.70350 5.90924 7.78389
Ar 2.10821 8.05142 5.46524
Ar 22.47338 5.71470 12.04323
Ar 22.82208 9.06047 14.75476
Ar 3.25053 5.83846 14.41281
Ar 2.15253 8.70491 11.70198
Ar 0.70631 5.85593 17.85923
Ar 22.45139 8.87399 19.23222
Ar 3.14939 6.98726 19.84947
Ar 3.31802 8.37301 16.45784
Ar 0.22324 10.92112 0.08215
Ar 1.95477 13.43939 2.98142
Ar 3.87856 10.46179 3.87320
Ar 3.25383 13.58030 21.81656
Ar 0.14454 11.21880 5.56768
Ar 21.53386 14.17942 9.41373
Ar 3.26838 11.29094 9.59683
Ar 2.20958 13.76175 6.67140
Ar 22.52583 11.48257 11.91158
Ar 22.49941 14.73939 14.58642
Ar 3.03160 12.02636 14.04388
Ar 2.85099 14.58015 10.90764
Ar 0.42463 12.20041 17.07699
Ar 22.80560 14.50456 19.43318
Ar 3.20447 10.38118 19.57404
Ar 3.08318 14.36198 17.26400
Ar 0.89979 16.02721 0.16040
Ar 22.73945 20.80313 1.76897
Ar 3.01442 16.72859 2.90885
Ar 2.91555 19.77882 22.77652
Ar 22.30072 15.92998 6.01596
Ar 21.85142 21.82395 7.24363
Ar 1.66019 17.25526 8.41888
Ar 1.67210 19.53574 5.22228
Ar 22.56691 16.99425 11.81655
Ar 22.17232 20.14792 13.94052
Ar 3.01733 16.37164 13.89892
Ar 2.40470 19.67450 11.81370
Ar 22.22836 17.47285 16.46236
Ar 22.06139 19.17551 20.54347
Ar 2.77959 17.51440 20.29962
Ar 1.81156 19.79848 16.98619
Ar 5.29069 22.16276 0.81928
Ar 6.59535 3.74619 3.67281
Ar 8.59414 0.23191 3.26366
Ar 7.74575 3.32812 0.42201
Ar 5.90945 22.37278 5.88511
Ar 5.31674 2.88125 9.29456
Ar 8.82588 22.30331 8.63467
Ar 8.16139 2.69826 6.46970
Ar 5.42492 22.66891 11.99541
Ar 6.41561 2.14569 14.60429
Ar 7.78019 21.79374 14.46388
Ar 8.75112 2.59443 11.36041
Ar 5.69132 22.20971 17.74459
Ar 5.23483 1.94320 20.65781
Ar 8.55233 0.22838 20.76955
Ar 7.73041 2.73026 17.79214
Ar 5.36117 5.42518 22.72106
Ar 7.28182 8.11124 1.70239
Ar 9.14134 5.93755 3.88760
Ar 10.07675 8.72035 22.10194
Ar 5.55302 6.79883 5.03454
Ar 6.08536 8.40847 8.65076
Ar 8.51699 5.53228 8.85137
Ar 8.64683 8.24088 6.57916
Ar 4.51122 5.97129 11.17592
Ar 5.64215 8.88789 12.61951
Ar 8.14498 6.00848 12.77756
Ar 9.00405 9.13784 11.04799
Ar 5.80006 6.06357 17.23055
Ar 6.26088 9.00226 19.58378
Ar 8.93244 6.04606 20.06728
Ar 8.63088 8.55729 16.31911
Ar 7.20249 11.61436 0.09708
Ar 6.00529 14.16937 4.45983
Ar 8.13828 10.76048 3.63769
Ar 8.95197 14.20734 2.48066
Ar 5.35276 11.46058 6.78375
Ar 6.45417 14.57510 8.80483
Ar 10.49960 13.77214 8.89256
Ar 9.13284 14.97740 6.10187
Ar 6.64038 12.12483 11.01663
Ar 5.97350 14.45794 14.02590
Ar 8.78084 11.68680 13.96914
Ar 8.55115 15.58866 11.78037
Ar 5.65417 10.83960 16.62335
Ar 6.46858 14.84798 20.50741
Ar 8.08310 12.02505 18.85254
Ar 8.42825 14.84285 16.71708
Ar 5.88939 16.36626 0.92664
Ar 4.88226 19.50920 3.07417
Ar 7.65812 17.38533 4.11525
Ar 7.78940 19.88591 1.49431
Ar 4.78787 17.62849 6.17117
Ar 4.69108 20.18851 8.67801
Ar 8.19681 17.42071 8.48106
Ar 9.14814 20.20837 5.86590
Ar 5.28528 17.92586 11.47857
Ar 4.68697 19.97941 14.25313
Ar 8.62089 17.81596 14.48524
Ar 8.67568 19.94905 11.59966
Ar 5.79477 17.52336 16.98192
Ar 6.08167 20.23790 20.93132
Ar 8.79538 17.22636 19.95101
Ar 8.67586 20.05201 17.65341
Ar 11.18717 0.19324 0.66454
Ar 10.79734 3.06872 3.24180
Ar 14.45458 0.12058 2.93595
Ar 13.61091 2.91875 0.48445
Ar 11.76464 0.29835 5.61232
Ar 11.87990 2.25252 8.93999
Ar 14.94325 22.76036 7.91462
Ar 14.24832 2.81674 4.99351
Ar 11.05181 0.05676 11.73055
Ar 10.81737 2.94620 14.40433
Ar 15.37239 1.05859 14.89663
Ar 14.09697 2.18394 11.39594
Ar 11.50489 22.48471 16.99036
Ar 11.14365 3.02441 20.51789
Ar 13.51909 22.07907 20.51235
Ar 13.73937 2.91059 17.82442
Ar 11.27523 5.41640 0.62640
Ar 11.36536 8.49536 3.61851
Ar 14.37227 6.93824 2.64507
Ar 13.65965 8.35578 22.62658
Ar 11.49881 4.69284 6.09759
Ar 11.92469 8.97463 8.79346
Ar 13.97926 5.19464 8.48894
Ar 13.54728 7.64768 5.98051
Ar 11.69930 5.48933 11.15319
Ar 11.60837 7.84040 14.59047
Ar 14.32676 4.90585 14.58772
Ar 15.00312 7.46169 11.26632
Ar 11.09188 5.28452 16.92170
Ar 11.16107 8.60475 18.27454
Ar 13.25754 5.56306 19.93309
Ar 14.64779 8.02380 16.61838
Ar 10.92930 12.02659 0.74536
Ar 13.13051 14.14129 2.50355
Ar 14.42669 10.58481 3.40874
Ar 13.74898 15.42874 21.98888
Ar 11.42580 11.42939 6.20551
Ar 12.69739 16.24158 7.97391
Ar 14.69306 11.61294 9.09055
Ar 15.81091 14.67111 5.99189
Ar 11.46167 11.58882 11.63373
Ar 11.71081 14.25274 13.92633
Ar 14.48708 10.17866 13.53292
Ar 14.28908 14.37520 10.96466
Ar 12.56405 11.27387 16.32962
Ar 10.66249 13.79330 19.90702
Ar 13.59084 11.42312 19.62558
Ar 13.54746 14.51749 17.65138
Ar 11.21637 17.71528 0.31766
Ar 11.24406 20.45561 3.07830
Ar 15.70388 17.57680 3.68699
Ar 14.31880 19.65963 0.56689
Ar 12.04807 17.22267 4.49589
Ar 12.24451 20.30114 8.55822
Ar 15.73736 18.77480 7.90138
Ar 13.87504 20.08301 5.31115
Ar 11.62921 17.33549 11.12676
Ar 11.37657 19.96622 13.70338
Ar 13.44971 17.34810 14.23885
Ar 14.73863 20.63456 11.11190
Ar 11.53082 18.45878 16.80840
Ar 10.15744 20.30759 21.49809
Ar 13.63427 18.60528 19.96635
Ar 14.76488 20.11539 16.21309
Ar 16.37861 22.76723 22.73509
Ar 17.01965 2.79267 2.06469
Ar 19.84340 0.42913 1.53067
Ar 19.25060 2.26671 21.40515
Ar 18.49756 0.65108 5.09290
Ar 16.97058 3.00727 7.38863
Ar 21.46962 2.25824 7.38467
Ar 20.10212 4.12050 4.56921
Ar 17.93337 0.69743 11.47507
Ar 18.07538 4.11220 14.23263
Ar 20.27786 22.81702 13.77599
Ar 20.48472 2.84150 11.67213
Ar 16.47326 0.19657 18.06809
Ar 15.77024 2.51201 20.42812
Ar 20.27957 21.95264 19.23737
Ar 19.16966 1.86877 16.97898
Ar 15.99546 5.59481 22.69558
Ar 17.22000 8.79216 1.87848
Ar 19.72067 5.07020 0.95191
Ar 19.15688 8.11098 21.65977
Ar 16.77209 5.37397 4.72811
Ar 16.95336 7.08914 8.10491
Ar 19.97297 5.24435 8.36071
Ar 19.75929 8.73219 5.44676
Ar 17.62935 4.37906 10.72746
Ar 17.42415 7.91728 14.05742
Ar 20.76389 6.26662 15.37077
Ar 20.34601 8.49465 11.67768
Ar 17.09080 4.87382 18.41817
Ar 16.00834 8.00691 20.01295
Ar 21.98142 3.31726 19.37886
Ar 18.75456 8.72547 17.35504
Ar 15.42600 11.58589 22.64422
Ar 17.15576 13.77125 2.98231
Ar 19.75294 11.27651 2.64914
Ar 19.96440 13.80559 22.17001
Ar 16.96929 10.20473 6.39821
Ar 17.37290 13.96268 9.25724
Ar 20.05758 10.79655 8.48670
Ar 19.41594 13.51614 6.07668
Ar 17.32662 10.47204 10.84444
Ar 15.50435 13.83895 14.22406
Ar 18.93194 10.97921 14.10714
Ar 19.30721 14.44403 12.31650
Ar 15.96634 11.35562 16.94701
Ar 16.57410 14.25895 19.70464
Ar 19.21464 11.66444 19.25987
Ar 19.05668 13.77543 16.09839
Ar 17.15603 16.45262 0.30982
Ar 18.32855 20.23905 3.50289
Ar 20.82463 15.49134 2.60323
Ar 19.30185 19.34356 0.32007
Ar 18.47929 17.13413 6.36547
Ar 17.73785 21.24092 8.30942
Ar 19.13032 17.06009 9.67505
Ar 21.14340 19.06757 4.64640
Ar 16.33537 17.28205 12.34986
Ar 17.52254 20.10114 13.85917
Ar 18.84905 17.16168 14.74835
Ar 20.33716 20.26447 10.21254
Ar 16.54848 17.72628 17.77488
Ar 17.11749 20.23309 20.15431
Ar 19.52863 16.86693 20.21398
Ar 19.48329 19.81705 16.80981
256
frame 34
Ar 22.59166 0.32241 21.76308
Ar 22.54284 3.19761 1.09360
Ar 2.80921 22.31769 3.27097
Ar 3.22965 2.20210 0.88453
Ar 22.70349 1.32783 3.95214
Ar 0.90643 3.76475 9.56489
Ar 2.68161 0.08152 8.29372
Ar 3.73774 2.51326 5.55260
Ar 22.59301 0.21336 10.74399
Ar 22.79637 2.69347 14.29102
Ar 2.01461 22.66319 13.69449
Ar 3.45970 3.15305 12.68321
Ar 0.08565 0.16500 17.20750
Ar 2.24823 3.66573 20.73309
Ar 2.80212 22.21355 20.09493
Ar 3.81546 3.14939 17.14698
Ar 22.79765 6.06425 21.95799
Ar 21.53276 7.39296 2.38130
Ar 2.58070 6.27659 2.35654
Ar 3.83114 8.90724 0.28312
Ar 1.13254 4.66049 5.63873
Ar 22.34987 7.72766 8.34930
Ar 3.63539 5.79078 7.76505
Ar 2.12069 8.02284 5.45934
Ar 22.53355 5.79811 12.06918
Ar 22.74276 9.07934 14.79902
Ar 3.25919 5.92381 14.27152
Ar 2.20393 8.68396 11.63292
Ar 0.75053 5.85853 17.77209
Ar 22.47597 8.88168 19.21797
Ar 3.21001 7.02656 19.83446
Ar 3.21219 8.38810 16.50279
Ar 0.41662 10.92747 0.21384
Ar 1.99319 13.34315 2.90169
Ar 4.01587 10.43057 3.88383
Ar 3.25355 13.53409 21.76277
Ar 0.14117 11.23713 5.47999
Ar 21.54081 14.20740 9.42707
Ar 3.20773 11.31723 9.64237
Ar 2.14325 13.77996 6.73762
Ar 22.54504 11.57202 11.93671
Ar 22.47771 14.84653 14.49311
Ar 2.98585 12.07697 14.13296
Ar 2.85008 14.51771 10.88091
Ar 0.40341 12.19298 17.05390
Ar 22.81873 14.57946 19.51113
Ar 3.07352 10.46523 19.57653
Ar 3.05199 14.37965 17.24855
Ar 0.85894 15.93842 0.23236
Ar 22.62417 20.81392 1.84830
Ar 2.93115 16.76059 2.94608
Ar 2.90818 19.76967 22.72320
Ar 22.29313 15.80989 6.08686
Ar 21.74588 21.70969 7.32777
Ar 1.61567 17.21533 8.55016
Ar 1.67572 19.55079 5.21824
Ar 22.52640 17.04050 11.76935
Ar 22.13864 20.02115 13.90404
Ar 3.13590 16.44289 13.88119
Ar 2.37510 19.68341 11.84780
Ar 22.17137 17.44733 16.42234
Ar 22.14025 19.24588 20.46236
Ar 2.79069 17.51104 20.25321
Ar 1.75620 19.88874 16.88999
Ar 5.28861 22.12644 0.75962
Ar 6.49012 3.70495 3.66599
Ar 8.67225 0.17411 3.26980
Ar 7.83151 3.31972 0.41276
Ar 5.85603 22.42380 5.95322
Ar 5.35059 2.94249 9.27768
Ar 8.86503 22.26177 8.74101
Ar 8.22037 2.65351 6.52004
Ar 5.47815 22.72412 11.85578
Ar 6.40501 2.11048 14.59606
Ar 7.72094 21.67457 14.37890
Ar 8.77103 2.70298 11.42033
Ar 5.76380 22.35472 17.81144
Ar 5.20653 1.92754 20.66958
Ar 8.52011 0.23998 20.80933
Ar 7.73821 2.69363 17.85617
Ar 5.33463 5.42461 22.61830
Ar 7.28177 8.08782 1.64979
Ar 9.09822 5.92557 3.98944
Ar 10.02522 8.64254 22.07628
Ar 5.52093 6.97643 5.01308
Ar 6.06380 8.40458 8.72565
Ar 8.46080 5.47241 8.88963
Ar 8.55541 8.23905 6.58492
Ar 4.44456 5.95431 11.15605
Ar 5.65046 9.05996 12.67789
Ar 8.08557 6.02946 12.68980
Ar 9.06234 9.15002 11.04352
Ar 5.81446 5.95592 17.30521
Ar 6.36108 8.98839 19.54357
Ar 8.97745 6.04664 20.09095
Ar 8.59525 8.54741 16.22340
Ar 7.14951 11.64711 0.10831
Ar 6.04229 14.18404 4.45010
Ar 8.02770 10.67860 3.73630
Ar 8.97536 14.20186 2.53105
Ar 5.39415 11.43705 6.80138
Ar 6.48196 14.63219 8.79055
Ar 10.49104 13.84472 8.94200
Ar 9.18353 14.87243 6.09320
Ar 6.53543 12.01682 10.86261
Ar 6.07752 14.53892 13.89757
Ar 8.80977 11.86453 13.93512
Ar 8.66763 15.57011 11.72775
Ar 5.64781 10.85263 16.60881
Ar 6.52305 14.72151 20.47769
Ar 8.01081 12.10541 18.83020
Ar 8.37042 14.74997 16.75248
Ar 5.75971 16.33124 0.94800
Ar 4.90444 19.46473 3.04660
Ar 7.64423 17.37857 4.03901
Ar 7.59749 19.87432 1.52879
Ar 4.77451 17.60563 6.25756
Ar 4.73630 20.16917 8.61730
Ar 8.25859 17.48127 8.42076
Ar 9.08060 20.23019 5.90537
Ar 5.27225 17.83302 11.52540
Ar 4.64843 19.90894 14.38018
Ar 8.63140 17.87975 14.45974
Ar 8.67326 19.97067 11.57922
Ar 5.71887 17.62673 16.92532
Ar 6.02671 20.13736 20.99538
Ar 8.85972 17.15869 19.89506
Ar 8.64840 19.98425 17.63952
Ar 11.32877 0.24815 0.64138
Ar 10.74422 2.97887 3.25549
Ar 14.40724 0.15902 2.96576
Ar 13.56421 3.00588 0.53674
Ar 11.80003 0.29091 5.57078
Ar 11.81316 2.25140 8.84344
Ar 14.90149 22.73819 7.96664
Ar 14.19429 2.67195 4.90069
Ar 11.05719 0.07222 11.65044
Ar 10.82774 2.94586 14.27958
Ar 15.27092 1.04038 14.86975
Ar 14.17994 2.15731 11.45756
Ar 11.50443 22.42855 16.92461
Ar 11.29649 3.05674 20.44047
Ar 13.48350 22.12472 20.51100
Ar 13.83223 2.84709 17.74418
Ar 11.19714 5.40335 0.59524
Ar 11.29016 8.51134 3.61152
Ar 14.27096 6.91633 2.66300
Ar 13.62084 8.25707 22.61225
Ar 11.36795 4.79131 6.19005
Ar 11.80582 9.08306 8.84070
Ar 13.96338 5.17059 8.54487
Ar 13.50164 7.70156 6.11190
Ar 11.65960 5.51966 11.22588
Ar 11.59710 7.81840 14.48765
Ar 14.27582 4.86174 14.54088
Ar 15.02232 7.33136 11.29928
Ar 11.09059 5.34240 16.89253
Ar 11.22088 8.59973 18.33379
Ar 13.31109 5.64689 20.01219
Ar 14.75873 8.00017 16.61207
Ar 11.17235 12.03234 0.78143
Ar 13.07308 14.19814 2.60216
Ar 14.52700 10.59926 3.37927
Ar 13.64685 15.37333 21.90905
Ar 11.41004 11.54714 6.12957
Ar 12.66878 16.28165 7.90658
Ar 14.69406 11.62278 9.03740
Ar 15.77932 14.75071 5.95244
Ar 11.48284 11.56345 11.66415
Ar 11.63361 14.36202 13.86055
Ar 14.46169 10.25683 13.53625
Ar 14.27498 14.45171 10.93464
Ar 12.55947 11.33184 16.33402
Ar 10.55698 13.75558 19.88227
Ar 13.50144 11.48759 19.71221
Ar 13.49754 14.52286 17.60071
Ar 11.24456 17.60157 0.41105
Ar 11.31953 20.41905 3.05597
Ar 15.78019 17.56487 3.76217
Ar 14.34403 19.71747 0.58863
Ar 11.99753 17.17073 4.49493
Ar 12.27882 20.26688 8.54180
Ar 15.76425 18.73054 7.95379
Ar 13.90072 20.09081 5.42634
Ar 11.62533 17.38785 11.02347
Ar 11.38244 19.94386 13.70136
Ar 13.35596 17.30812 14.26683
Ar 14.69459 20.56659 11.17759
Ar 11.60336 18.49368 16.85451
Ar 10.26690 20.27088 21.58238
Ar 13.58323 18.62138 19.94375
Ar 14.60462 20.13427 16.09196
Ar 16.48378 22.79999 0.04140
Ar 17.06250 2.88563 2.04288
Ar 19.92451 0.44890 1.44423
Ar 19.21318 2.23988 21.28721
Ar 18.46914 0.59384 4.99851
Ar 17.11689 3.13297 7.43001
Ar 21.51717 2.28351 7.42350
Ar 20.13239 4.16523 4.66904
Ar 17.87209 0.64718 11.57954
Ar 18.05088 4.15386 14.13848
Ar 20.30021 0.00662 13.67084
Ar 20.61922 2.66111 11.68117
Ar 16.50046 0.12551 18.08280
Ar 15.74230 2.53350 20.51693
Ar 20.18170 22.05995 19.27828
Ar 19.08962 1.91309 16.98218
Ar 16.01110 5.51249 22.65472
Ar 17.27298 8.81465 1.96770
Ar 19.73305 5.10159 1.01053
Ar 19.15461 8.05148 21.55242
Ar 16.83628 5.41486 4.67243
Ar 16.86694 7.13338 8.11716
Ar 19.95261 5.16921 8.48990
Ar 19.74333 8.75173 5.42020
Ar 17.61961 4.43494 10.79848
Ar 17.41535 7.91994 14.12543
Ar 20.78231 6.28141 15.40156
Ar 20.32283 8.43607 11.71930
Ar 17.09951 4.88086 18.40666
Ar 16.08401 7.94647 19.93970
Ar 22.03841 3.39528 19.30737
Ar 18.63516 8.67866 17.35960
Ar 15.42790 11.68861 22.56715
Ar 17.26295 13.70974 2.96739
Ar 19.80051 11.29674 2.66211
Ar 20.02024 13.78107 22.25288
Ar 16.91133 10.27540 6.46988
Ar 17.45576 13.79935 9.22024
Ar 20.07775 10.62275 8.50818
Ar 19.44108 13.47550 6.08523
Ar 17.43354 10.37584 10.85928
Ar 15.59904 13.78982 14.16241
Ar 19.01503 10.97120 14.06742
Ar 19.36932 14.42540 12.51091
Ar 16.02839 11.36244 16.91223
Ar 16.57524 14.34534 19.69402
Ar 19.15039 11.60225 19.25868
Ar 19.11888 13.71864 16.17224
Ar 17.12904 16.48595 0.29693
Ar 18.19830 20.27748 3.54309
Ar 20.91566 15.48908 2.64393
Ar 19.46577 19.28221 0.38159
Ar 18.45187 17.07595 6.24354
Ar 17.81905 21.26887 8.20975
Ar 19.13107 17.13567 9.59664
Ar 21.17378 18.99110 4.76834
Ar 16.25622 17.20628 12.35730
Ar 17.58887 20.13169 13.78135
Ar 18.71394 17.04449 14.72315
Ar 20.34001 20.39058 10.17957
Ar 16.56075 17.72660 17.85215
Ar 17.19932 20.26058 20.12158
Ar 19.49942 16.86033 20.25470
Ar 19.46300 19.70292 16.73636
256
frame 35
Ar 22.55290 0.34165 21.73260
Ar 22.48791 3.22195 1.03116
Ar 2.88914 22.28235 3.34159
Ar 3.18971 2.24053 0.96563
Ar 22.76213 1.32540 3.99050
Ar 0.97860 3.82788 9.57883
Ar 2.65283 0.10848 8.18907
Ar 3.76206 2.59752 5.52146
Ar 22.57374 0.26741 10.78708
Ar 0.00732 2.77089 14.28473
Ar 1.99274 22.60776 13.64696
Ar 3.52132 3.15117 12.73210
Ar 0.03280 0.15991 17.24991
Ar 2.39622 3.73413 20.78457
Ar 2.81769 22.12343 19.99040
Ar 3.89788 3.02565 17.20034
Ar 22.70292 6.09073 21.95576
Ar 21.50696 7.45025 2.53604
Ar 2.62938 6.25595 2.27088
Ar 3.96443 8.98937 0.29017
Ar 1.12216 4.65867 5.55423
Ar 22.39022 7.73996 8.41454
Ar 3.56964 5.66670 7.75669
Ar 2.10641 8.00977 5.46688
Ar 22.60573 5.88448 12.11528
Ar 22.67398 9.11390 14.83959
Ar 3.24282 6.04883 14.18513
Ar 2.23155 8.65138 11.57845
Ar 0.81154 5.87728 17.63375
Ar 22.49270 8.90302 19.20801
Ar 3.28926 7.05323 19.84740
Ar 3.08756 8.43690 16.56597
Ar 0.60948 10.93326 0.34357
Ar 2.02531 13.23987 2.81827
Ar 4.15768 10.40253 3.85115
Ar 3.25438 13.48434 21.71039
Ar 0.11776 11.24011 5.38629
Ar 21.55055 14.23315 9.43522
Ar 3.14149 11.33528 9.67145
Ar 2.11861 13.79794 6.82071
Ar 22.56305 11.66612 11.96280
Ar 22.46749 14.88502 14.37287
Ar 2.93832 12.12575 14.21633
Ar 2.84685 14.47102 10.85604
Ar 0.36396 12.14464 17.01245
Ar 0.00210 14.67577 19.60947
Ar 2.93109 10.58334 19.57787
Ar 3.04590 14.41581 17.23413
Ar 0.80248 15.85332 0.29096
Ar 22.51019 20.81748 1.92771
Ar 2.82031 16.77705 3.00789
Ar 2.87379 19.76333 22.71005
Ar 22.26274 15.69983 6.14605
Ar 21.65469 21.57413 7.38234
Ar 1.58217 17.18535 8.68762
Ar 1.70559 19.56439 5.22862
Ar 22.48132 17.09208 11.70908
Ar 22.11854 19.87182 13.86782
Ar 3.22183 16.52102 13.89247
Ar 2.31027 19.69280 11.84538
Ar 22.10366 17.44033 16.42931
Ar 22.23868 19.32103 20.38312
Ar 2.80526 17.47790 20.16916
Ar 1.72693 19.98217 16.79839
Ar 5.28264 22.16934 0.70408
Ar 6.36303 3.65126 3.64000
Ar 8.72861 0.10915 3.27910
Ar 7.96715 3.27436 0.39930
Ar 5.80943 22.47032 6.01483
Ar 5.39047 2.99042 9.25850
Ar 8.89913 22.23885 8.85201
Ar 8.29141 2.59667 6.58153
Ar 5.52032 22.77671 11.69351
Ar 6.39292 2.09316 14.58422
Ar 7.68633 21.55897 14.32847
Ar 8.76742 2.81222 11.46074
Ar 5.83371 22.49667 17.87056
Ar 5.21352 1.91129 20.67914
Ar 8.47047 0.28062 20.84027
Ar 7.75799 2.66384 17.93327
Ar 5.26937 5.45186 22.50371
Ar 7.27071 8.04135 1.58119
Ar 9.02182 5.92574 4.06544
Ar 9.97682 8.59396 22.06050
Ar 5.49970 7.16037 4.97701
Ar 5.99892 8.40604 8.84546
Ar 8.40611 5.41018 8.93508
Ar 8.51751 8.25626 6.56369
Ar 4.41659 5.96269 11.09048
Ar 5.66283 9.23127 12.75382
Ar 8.02259 6.05253 12.61216
Ar 9.09632 9.14852 11.04286
Ar 5.85083 5.86361 17.38055
Ar 6.47535 8.95395 19.52107
Ar 9.01015 6.02383 20.09892
Ar 8.51414 8.53809 16.10785
Ar 7.09597 11.67943 0.11542
Ar 6.04581 14.19276 4.44327
Ar 7.92337 10.62200 3.85626
Ar 9.00758 14.20535 2.56752
Ar 5.45729 11.42470 6.84201
Ar 6.48269 14.69487 8.74920
Ar 10.48559 13.88540 9.04836
Ar 9.23120 14.77366 6.04946
Ar 6.44176 11.88712 10.73265
Ar 6.17812 14.60771 13.77383
Ar 8.82424 12.03923 13.91580
Ar 8.78100 15.54175 11.66444
Ar 5.63815 10.88590 16.56605
Ar 6.54952 14.59724 20.45910
Ar 7.90171 12.10346 18.80057
Ar 8.32275 14.68658 16.76955
Ar 5.64349 16.29528 0.95846
Ar 4.84140 19.42660 3.09118
Ar 7.64623 17.37232 3.96560
Ar 7.55794 19.85248 1.50261
Ar 4.75922 17.56035 6.34046
Ar 4.79734 20.13986 8.57851
Ar 8.33893 17.58211 8.36399
Ar 9.01375 20.24332 5.93652
Ar 5.30305 17.72314 11.54545
Ar 4.61722 19.85001 14.53134
Ar 8.62793 17.93108 14.45283
Ar 8.65387 19.97437 11.50930
Ar 5.64333 17.71873 16.88029
Ar 5.99115 20.00916 21.01480
Ar 8.94391 17.10764 19.83762
Ar 8.59415 19.93738 17.63411
Ar 11.46754 0.31336 0.61783
Ar 10.70721 2.87228 3.25068
Ar 14.36468 0.11574 2.93941
Ar 13.54310 3.07048 0.60144
Ar 11.80806 0.26873 5.54612
Ar 11.72782 2.24623 8.73026
Ar 14.80666 22.75488 8.01246
Ar 14.15497 2.62401 4.86412
Ar 11.07714 0.07389 11.57643
Ar 10.84836 2.93714 14.15749
Ar 15.17086 1.02109 14.82736
Ar 14.27821 2.13657 11.52780
Ar 11.50649 22.37438 16.85838
Ar 11.41191 3.04206 20.36857
Ar 13.44979 22.18881 20.50667
Ar 13.90554 2.77980 17.63080
Ar 11.09383 5.42181 0.56312
Ar 11.19797 8.56455 3.58085
Ar 14.17834 6.84793 2.73622
Ar 13.56401 8.20350 22.54369
Ar 11.24674 4.88483 6.31293
Ar 11.69276 9.18695 8.89494
Ar 13.96290 5.12679 8.60726
Ar 13.48909 7.76380 6.24628
Ar 11.60862 5.54879 11.30971
Ar 11.59999 7.80889 14.35859
Ar 14.22388 4.81904 14.48846
Ar 15.03838 7.20243 11.33877
Ar 11.08486 5.38528 16.88321
Ar 11.31523 8.60219 18.43131
Ar 13.38538 5.76858 20.08621
Ar 14.85510 7.96687 16.60592
Ar 11.41015 12.00536 0.79129
Ar 13.03764 14.27021 2.71949
Ar 14.61605 10.62418 3.35563
Ar 13.55358 15.30355 21.81930
Ar 11.39534 11.66455 6.04368
Ar 12.66660 16.33411 7.81904
Ar 14.66276 11.60758 8.96366
Ar 15.72375 14.81652 5.93798
Ar 11.53374 11.54219 11.68446
Ar 11.54599 14.46078 13.80174
Ar 14.44626 10.33388 13.52867
Ar 14.23869 14.55066 10.90965
Ar 12.52133 11.38671 16.31583
Ar 10.51527 13.76227 19.88895
Ar 13.40552 11.54204 19.80252
Ar 13.45073 14.54949 17.54513
Ar 11.27589 17.44547 0.54258
Ar 11.38851 20.37897 3.01298
Ar 15.85199 17.54755 3.81837
Ar 14.37194 19.77642 0.61763
Ar 11.93456 17.11077 4.48687
Ar 12.28600 20.22980 8.53291
Ar 15.75868 18.62556 8.02718
Ar 13.93320 20.11956 5.52337
Ar 11.62352 17.45084 10.93097
Ar 11.39562 19.97247 13.69547
Ar 13.30906 17.23037 14.28353
Ar 14.65592 20.50165 11.25476
Ar 11.66191 18.50811 16.94807
Ar 10.37492 20.24000 21.63627
Ar 13.53145 18.62451 19.92084
Ar 14.45556 20.18182 15.96832
Ar 16.59441 22.81445 0.16514
Ar 17.10445 2.96981 2.03371
Ar 20.00074 0.46339 1.37407
Ar 19.17588 2.22116 21.16616
Ar 18.44414 0.55878 4.91323
Ar 17.25772 3.24608 7.47319
Ar 21.55433 2.30116 7.44912
Ar 20.17397 4.20886 4.76114
Ar 17.73511 0.58791 11.64063
Ar 18.02580 4.18560 14.07945
Ar 20.33923 0.00141 13.63851
Ar 20.72897 2.58115 11.65508
Ar 16.49630 0.03086 18.09866
Ar 15.70786 2.55077 20.64487
Ar 20.07737 22.17920 19.33125
Ar 19.04834 1.98298 16.96849
Ar 16.04645 5.43808 22.60696
Ar 17.33588 8.82481 2.04993
Ar 19.67201 5.09649 1.03410
Ar 19.17500 7.99348 21.45166
Ar 16.89322 5.47382 4.61858
Ar 16.79346 7.17975 8.12897
Ar 19.95142 5.11216 8.60462
Ar 19.75566 8.74503 5.38059
Ar 17.56353 4.49574 10.86362
Ar 17.39564 7.89576 14.17657
Ar 20.78796 6.27879 15.43292
Ar 20.29700 8.38158 11.75696
Ar 17.12038 4.89878 18.37197
Ar 16.14738 7.91090 19.86431
Ar 22.03373 3.42312 19.24144
Ar 18.52352 8.62121 17.36723
Ar 15.44524 11.79582 22.51309
Ar 17.36254 13.65423 2.93428
Ar 19.87124 11.31496 2.67450
Ar 20.07547 13.75289 22.33901
Ar 16.82473 10.37589 6.53877
Ar 17.55735 13.64357 9.18327
Ar 20.10798 10.46060 8.53126
Ar 19.46757 13.42596 6.08877
Ar 17.52869 10.27470 10.88394
Ar 15.70098 13.74530 14.11174
Ar 19.11086 10.97064 14.02690
Ar 19.42921 14.39221 12.68551
Ar 16.11369 11.37733 16.88290
Ar 16.57947 14.42896 19.68588
Ar 19.09115 11.54693 19.26772
Ar 19.18169 13.67654 16.26662
Ar 17.09508 16.51386 0.28462
Ar 18.04068 20.31602 3.57708
Ar 20.99848 15.48703 2.69034
Ar 19.63708 19.22600 0.43135
Ar 18.43692 17.01931 6.09451
Ar 17.95983 21.33065 8.08914
Ar 19.13117 17.20054 9.54617
Ar 21.19489 18.90771 4.88819
Ar 16.17153 17.11932 12.32322
Ar 17.64542 20.20838 13.68628
Ar 18.60194 16.89671 14.71838
Ar 20.36543 20.49591 10.20941
Ar 16.57227 17.69517 17.91795
Ar 17.28015 20.27595 20.12309
Ar 19.46293 16.84995 20.28440
Ar 19.44658 19.61628 16.68529
256
frame 36
Ar 22.53130 0.35701 21.69280
Ar 22.45615 3.23033 0.97486
Ar 2.96675 22.26909 3.41611
Ar 3.15324 2.28296 1.07122
Ar 22.81080 1.31907 4.04519
Ar 1.07264 3.88576 9.59599
Ar 2.61075 0.14970 8.08434
Ar 3.78510 2.65045 5.50830
Ar 22.66304 0.22941 10.78389
Ar 0.06190 2.85963 14.31229
Ar 1.97591 22.56651 13.62047
Ar 3.56740 3.05950 12.75756
Ar 22.80146 0.17648 17.28595
Ar 2.51405 3.81591 20.82060
Ar 2.82635 22.03139 19.87789
Ar 3.95820 2.88366 17.25402
Ar 22.61172 6.14669 21.93749
Ar 21.51503 7.53662 2.70339
Ar 2.67339 6.22279 2.18571
Ar 4.09663 9.08282 0.28702
Ar 1.05204 4.65872 5.45472
Ar 22.45077 7.74645 8.48052
Ar 3.51537 5.55312 7.74387
Ar 2.06865 8.01836 5.48136
Ar 22.69172 5.96175 12.17834
Ar 22.61572 9.16416 14.87216
Ar 3.20221 6.20951 14.15666
Ar 2.23312 8.61252 11.54138
Ar 0.88946 5.90375 17.46523
Ar 22.50047 8.93046 19.19926
Ar 3.37392 7.07981 19.87792
Ar 2.95898 8.51711 16.63884
Ar 0.79731 10.93374 0.46661
Ar 2.05780 13.14044 2.73850
Ar 4.29464 10.37847 3.78370
Ar 3.25564 13.43911 21.66483
Ar 0.07899 11.23286 5.28921
Ar 21.56010 14.25470 9.44276
Ar 3.06599 11.33519 9.67114
Ar 2.14054 13.80383 6.91857
Ar 22.58032 11.75974 11.99072
Ar 22.48191 14.86477 14.24394
Ar 2.89030 12.17266 14.29032
Ar 2.84140 14.45498 10.84531
Ar 0.30934 12.07868 16.96630
Ar 0.00635 14.77945 19.71184
Ar 2.79156 10.71485 19.57576
Ar 3.05648 14.46547 17.22286
Ar 0.73981 15.77228 0.32885
Ar 22.41498 20.81590 2.01210
Ar 2.68018 16.76833 3.09275
Ar 2.81207 19.75593 22.73209
Ar 22.20819 15.61144 6.19306
Ar 21.59282 21.44798 7.38543
Ar 1.56032 17.16550 8.81734
Ar 1.75538 19.57500 5.25795
Ar 22.42752 17.14361 11.63409
Ar 22.09948 19.72487 13.83371
Ar 3.26181 16.59091 13.93896
Ar 2.23789 19.68951 11.80997
Ar 22.04037 17.43590 16.48214
Ar 22.34610 19.39908 20.30329
Ar 2.82266 17.42253 20.05953
Ar 1.71638 20.06615 16.71168
Ar 5.27161 22.27601 0.65279
Ar 6.24614 3.59899 3.58862
Ar 8.75628 0.02742 3.28916
Ar 8.12099 3.21492 0.38196
Ar 5.77268 22.51470 6.06753
Ar 5.43823 3.01898 9.23834
Ar 8.92303 22.23803 8.94790
Ar 8.36654 2.52973 6.64214
Ar 5.55564 0.00054 11.51829
Ar 6.38918 2.08430 14.57385
Ar 7.66791 21.46112 14.31391
Ar 8.73837 2.90361 11.47128
Ar 5.89930 22.62099 17.91776
Ar 5.25600 1.88896 20.69328
Ar 8.41862 0.32779 20.86919
Ar 7.79432 2.64835 18.01717
Ar 5.19938 5.48377 22.38837
Ar 7.25459 7.97935 1.50753
Ar 8.91182 5.92163 4.10092
Ar 9.93442 8.58764 22.05755
Ar 5.48863 7.33542 4.93217
Ar 5.90945 8.41066 8.99006
Ar 8.35238 5.35599 8.97923
Ar 8.51738 8.29221 6.54595
Ar 4.43032 5.98957 10.98706
Ar 5.67233 9.38227 12.85392
Ar 7.95190 6.08573 12.55021
Ar 9.08893 9.13456 11.06087
Ar 5.90267 5.79253 17.45385
Ar 6.58957 8.90145 19.51351
Ar 9.02868 5.96937 20.08573
Ar 8.41892 8.52851 15.98948
Ar 7.04278 11.70942 0.12165
Ar 6.01561 14.19399 4.44067
Ar 7.82496 10.58684 3.98392
Ar 9.05443 14.20751 2.57812
Ar 5.53590 11.42233 6.90349
Ar 6.46469 14.76028 8.69294
Ar 10.48975 13.89959 9.18438
Ar 9.27613 14.68604 5.99134
Ar 6.37152 11.76400 10.60856
Ar 6.26599 14.66522 13.65786
Ar 8.82353 12.20296 13.90661
Ar 8.88089 15.51540 11.59749
Ar 5.61387 10.92737 16.49335
Ar 6.54443 14.50861 20.46696
Ar 7.79059 12.00736 18.76996
Ar 8.28583 14.66613 16.75866
Ar 5.53829 16.25747 0.95755
Ar 4.72490 19.39774 3.18962
Ar 7.66416 17.36212 3.90546
Ar 7.64478 19.82404 1.42457
Ar 4.74433 17.48563 6.40944
Ar 4.86737 20.11436 8.57051
Ar 8.43253 17.70315 8.31235
Ar 8.95103 20.25309 5.95418
Ar 5.37489 17.61610 11.53088
Ar 4.57600 19.82664 14.65910
Ar 8.61172 17.96179 14.45958
Ar 8.62553 19.94901 11.39987
Ar 5.58014 17.77381 16.87238
Ar 5.97455 19.85871 20.99235
Ar 9.03970 17.06812 19.78217
Ar 8.51998 19.91096 17.63487
Ar 11.58872 0.37403 0.59459
Ar 10.68921 2.78417 3.23874
Ar 14.33060 22.81329 2.85780
Ar 13.54715 3.12518 0.68375
Ar 11.78321 0.22417 5.54108
Ar 11.63498 2.23515 8.61799
Ar 14.69618 22.79544 8.05882
Ar 14.13542 2.68569 4.88703
Ar 11.11354 0.06856 11.51446
Ar 10.88941 2.92475 14.05658
Ar 15.07904 0.99193 14.77514
Ar 14.37408 2.12544 11.58726
Ar 11.50838 22.32473 16.79291
Ar 11.49947 2.99185 20.30085
Ar 13.42280 22.26550 20.49660
Ar 13.96475 2.71937 17.51337
Ar 10.97101 5.46152 0.53431
Ar 11.10049 8.64580 3.53799
Ar 14.09225 6.75124 2.83397
Ar 13.50364 8.19417 22.46027
Ar 11.14482 4.97072 6.45646
Ar 11.60065 9.28713 8.93482
Ar 13.97186 5.06063 8.67276
Ar 13.49715 7.83539 6.36896
Ar 11.55007 5.57514 11.39691
Ar 11.61380 7.81199 14.21418
Ar 14.17253 4.78032 14.43046
Ar 15.04941 7.08370 11.39205
Ar 11.07736 5.41119 16.88664
Ar 11.41894 8.61205 18.54207
Ar 13.46082 5.88998 20.13624
Ar 14.92239 7.92588 16.59656
Ar 11.63688 11.94824 0.77598
Ar 13.02790 14.35136 2.84969
Ar 14.68760 10.66003 3.33837
Ar 13.47297 15.21699 21.72026
Ar 11.38373 11.77820 5.95207
Ar 12.68486 16.38965 7.72142
Ar 14.59913 11.58191 8.89469
Ar 15.64595 14.85255 5.94766
Ar 11.60973 11.53069 11.70046
Ar 11.44384 14.52909 13.74703
Ar 14.44525 10.40027 13.51052
Ar 14.18070 14.64964 10.87810
Ar 12.45886 11.43305 16.28393
Ar 10.51891 13.79987 19.91910
Ar 13.30128 11.58618 19.88093
Ar 13.40922 14.59858 17.48892
Ar 11.30069 17.27178 0.70109
Ar 11.45022 20.33731 2.95634
Ar 15.89942 17.53303 3.84201
Ar 14.40028 19.83366 0.64954
Ar 11.85854 17.06059 4.47150
Ar 12.26092 20.19114 8.53967
Ar 15.74850 18.49136 8.12228
Ar 13.97502 20.15753 5.58648
Ar 11.62766 17.52613 10.85447
Ar 11.41477 20.03996 13.68692
Ar 13.30858 17.14286 14.29474
Ar 14.61989 20.44026 11.34072
Ar 11.68714 18.49976 17.07154
Ar 10.47861 20.21255 21.67158
Ar 13.48732 18.61953 19.91106
Ar 14.34154 20.25483 15.84135
Ar 16.70681 22.80863 0.27504
Ar 17.13766 3.02970 2.04431
Ar 20.06304 0.47962 1.32349
Ar 19.13986 2.22177 21.05304
Ar 18.42507 0.56429 4.84243
Ar 17.37921 3.33655 7.50620
Ar 21.58912 2.29152 7.46482
Ar 20.22511 4.25219 4.84257
Ar 17.55274 0.53100 11.66903
Ar 18.00648 4.20338 14.08302
Ar 20.39261 22.78565 13.67917
Ar 20.74252 2.66651 11.60245
Ar 16.46244 22.76202 18.10464
Ar 15.66036 2.55509 20.77249
Ar 19.97861 22.29177 19.37743
Ar 19.03509 2.07096 16.94091
Ar 16.09867 5.39557 22.55907
Ar 17.40768 8.81559 2.12308
Ar 19.56534 5.08733 1.03365
Ar 19.22238 7.93668 21.36267
Ar 16.94204 5.54990 4.57047
Ar 16.73895 7.22739 8.13892
Ar 19.98555 5.09071 8.70900
Ar 19.77210 8.72498 5.34213
Ar 17.46394 4.55646 10.90054
Ar 17.37218 7.85351 14.19617
Ar 20.77594 6.25700 15.46316
Ar 20.27493 8.32695 11.79236
Ar 17.14876 4.91346 18.32056
Ar 16.18893 7.90723 19.80555
Ar 21.99761 3.41475 19.18756
Ar 18.43598 8.55673 17.37737
Ar 15.48271 11.90605 22.48789
Ar 17.44362 13.61467 2.89242
Ar 19.97229 11.32555 2.68550
Ar 20.12896 13.72212 22.42523
Ar 16.73995 10.48964 6.58993
Ar 17.67074 13.49883 9.15245
Ar 20.14520 10.31945 8.55131
Ar 19.49305 13.36368 6.08541
Ar 17.58649 10.17766 10.91037
Ar 15.80873 13.70894 14.06825
Ar 19.21573 10.97318 13.99420
Ar 19.48399 14.32696 12.80821
Ar 16.20597 11.39889 16.85968
Ar 16.58494 14.50431 19.67999
Ar 19.03706 11.49802 19.29118
Ar 19.24680 13.64436 16.37954
Ar 17.05382 16.53785 0.27424
Ar 17.87747 20.33700 3.59675
Ar 21.06800 15.48460 2.74643
Ar 19.80459 19.17068 0.47317
Ar 18.44427 16.96289 5.94388
Ar 18.09749 21.41026 7.93886
Ar 19.12923 17.25528 9.51221
Ar 21.19639 18.82618 4.99530
Ar 16.09397 17.04174 12.25693
Ar 17.69343 20.30029 13.57931
Ar 18.49749 16.76107 14.74870
Ar 20.39368 20.56215 10.32852
Ar 16.57434 17.64436 17.96551
Ar 17.35515 20.26437 20.17026
Ar 19.42922 16.84072 20.30466
Ar 19.42680 19.56797 16.66099
256
frame 37
Ar 22.53560 0.36549 21.63904
Ar 22.44294 3.22778 0.93018
Ar 3.03446 22.29408 3.49052
Ar 3.11949 2.33234 1.19583
Ar 0.02618 1.31093 4.10662
Ar 1.17110 3.93112 9.62279
Ar 2.55928 0.19755 7.98097
Ar 3.78019 2.66806 5.52809
Ar 0.00495 0.14683 10.74847
Ar 0.12837 2.95382 14.36389
Ar 1.96387 22.54462 13.62226
Ar 3.59487 2.93851 12.76684
Ar 22.74158 0.21483 17.31670
Ar 2.57813 3.90162 20.83802
Ar 2.82927 21.93945 19.76240
Ar 3.99603 2.73345 17.30714
Ar 22.52700 6.22554 21.90535
Ar 21.55502 7.61942 2.84771
Ar 2.71215 6.18291 2.10422
Ar 4.22063 9.18468 0.27049
Ar 0.93678 4.66105 5.34230
Ar 22.53662 7.73733 8.54733
Ar 3.47508 5.46475 7.70400
Ar 2.01347 8.04774 5.49826
Ar 22.79018 6.02094 12.25533
Ar 22.56413 9.22178 14.89221
Ar 3.15070 6.36891 14.15337
Ar 2.21214 8.57714 11.51974
Ar 0.97215 5.91517 17.29023
Ar 22.49741 8.95642 19.18860
Ar 3.44943 7.12417 19.90778
Ar 2.84056 8.63818 16.71625
Ar 0.96793 10.91136 0.56611
Ar 2.10257 13.06575 2.68087
Ar 4.40794 10.37317 3.69053
Ar 3.25779 13.41099 21.63593
Ar 0.03010 11.22129 5.19263
Ar 21.56763 14.26985 9.45439
Ar 2.97684 11.31283 9.63714
Ar 2.20148 13.79616 7.02563
Ar 22.59772 11.84793 12.01997
Ar 22.53783 14.81324 14.13204
Ar 2.84199 12.21761 14.35051
Ar 2.83584 14.47324 10.85624
Ar 0.24422 12.01361 16.92479
Ar 0.00758 14.88238 19.80638
Ar 2.66041 10.84184 19.56455
Ar 3.07546 14.52304 17.21704
Ar 0.68133 15.69640 0.34357
Ar 22.35704 20.81368 2.11116
Ar 2.51391 16.72842 3.19480
Ar 2.73137 19.74526 22.77727
Ar 22.14180 15.54717 6.23014
Ar 21.57177 21.34144 7.34201
Ar 1.55630 17.15651 8.91889
Ar 1.80889 19.58193 5.31282
Ar 22.35513 17.18231 11.54854
Ar 22.07460 19.59972 13.81147
Ar 3.25647 16.64445 14.01520
Ar 2.17565 19.66730 11.74468
Ar 21.99619 17.40800 16.56820
Ar 22.45613 19.47934 20.22170
Ar 2.84372 17.35615 19.93718
Ar 1.71250 20.13393 16.63341
Ar 5.26833 22.40460 0.60348
Ar 6.16781 3.55806 3.49580
Ar 8.75267 22.75011 3.29752
Ar 8.27330 3.14955 0.36252
Ar 5.74901 22.55765 6.11076
Ar 5.49420 3.02299 9.21738
Ar 8.92990 22.26714 9.00203
Ar 8.43908 2.45360 6.69476
Ar 5.58928 0.04123 11.33854
Ar 6.40326 2.07647 14.56951
Ar 7.66103 21.38842 14.32395
Ar 8.68517 2.95833 11.45113
Ar 5.95685 22.70539 17.94679
Ar 5.31889 1.86668 20.71856
Ar 8.37978 0.36394 20.90011
Ar 7.85569 2.65938 18.10235
Ar 5.15600 5.51031 22.29021
Ar 7.23963 7.90779 1.44026
Ar 8.78255 5.90376 4.09724
Ar 9.89581 8.62671 22.06111
Ar 5.48963 7.48238 4.88760
Ar 5.81776 8.42479 9.13189
Ar 8.29878 5.32170 9.01118
Ar 8.54229 8.34101 6.55935
Ar 4.47012 6.00682 10.89138
Ar 5.67354 9.50155 12.98590
Ar 7.86932 6.13449 12.51087
Ar 9.03299 9.11390 11.10951
Ar 5.96311 5.73966 17.52365
Ar 6.69530 8.82131 19.52054
Ar 9.03536 5.88621 20.05406
Ar 8.32220 8.51762 15.87188
Ar 6.99060 11.73543 0.12982
Ar 5.95798 14.18817 4.44096
Ar 7.74187 10.57344 4.10249
Ar 9.11419 14.20276 2.55481
Ar 5.62154 11.42605 6.97520
Ar 6.43601 14.82678 8.63049
Ar 10.51920 13.88336 9.30009
Ar 9.31658 14.61504 5.94635
Ar 6.33390 11.67154 10.47697
Ar 6.32767 14.71516 13.55440
Ar 8.80869 12.33958 13.90291
Ar 8.94266 15.51586 11.54216
Ar 5.56503 10.96731 16.38712
Ar 6.51454 14.46881 20.50193
Ar 7.72200 11.85936 18.74675
Ar 8.25788 14.68107 16.72877
Ar 5.43909 16.21911 0.94938
Ar 4.63418 19.37592 3.29623
Ar 7.69368 17.34834 3.86127
Ar 7.77799 19.79474 1.32544
Ar 4.73012 17.38045 6.46173
Ar 4.94202 20.09974 8.59424
Ar 8.53276 17.82138 8.27177
Ar 8.89485 20.26892 5.95349
Ar 5.47799 17.52088 11.48288
Ar 4.51408 19.87126 14.71635
Ar 8.58813 17.96797 14.47308
Ar 8.59174 19.88467 11.28046
Ar 5.54398 17.76053 16.93387
Ar 5.96920 19.69784 20.94323
Ar 9.13950 17.03967 19.73070
Ar 8.43351 19.90363 17.64133
Ar 11.67509 0.41702 0.56956
Ar 10.69046 2.73298 3.22597
Ar 14.30325 22.65950 2.77145
Ar 13.56989 3.19042 0.78836
Ar 11.73437 0.16146 5.55046
Ar 11.54047 2.21494 8.51851
Ar 14.58935 0.02828 8.10937
Ar 14.13257 2.80152 4.93328
Ar 11.17144 0.06466 11.47087
Ar 10.95591 2.90846 13.98700
Ar 15.00264 0.94154 14.71725
Ar 14.44922 2.13351 11.61912
Ar 11.50512 22.28407 16.73113
Ar 11.57113 2.92270 20.23777
Ar 13.40587 22.34751 20.47596
Ar 14.01077 2.67424 17.41621
Ar 10.84474 5.51028 0.51268
Ar 11.00325 8.74390 3.48834
Ar 14.00436 6.64206 2.93120
Ar 13.44887 8.24281 22.41230
Ar 11.05945 5.05999 6.60550
Ar 11.53968 9.38347 8.94199
Ar 13.98657 4.97304 8.73756
Ar 13.51775 7.91349 6.47405
Ar 11.48765 5.59456 11.47489
Ar 11.63441 7.82979 14.06929
Ar 14.12400 4.74820 14.36775
Ar 15.04708 6.98750 11.46263
Ar 11.07026 5.42432 16.89597
Ar 11.52259 8.62749 18.65501
Ar 13.51480 5.95820 20.13611
Ar 14.94578 7.87906 16.58253
Ar 11.85564 11.87070 0.74340
Ar 13.04577 14.41586 2.97570
Ar 14.73952 10.70613 3.32676
Ar 13.40717 15.11738 21.61443
Ar 11.38087 11.88058 5.85749
Ar 12.71442 16.43907 7.63063
Ar 14.49545 11.56305 8.85490
Ar 15.55111 14.85120 5.98019
Ar 11.69795 11.53029 11.71863
Ar 11.33360 14.55723 13.69912
Ar 14.46369 10.44863 13.48661
Ar 14.09259 14.72368 10.82904
Ar 12.37949 11.46890 16.24446
Ar 10.53279 13.84688 19.95819
Ar 13.19414 11.61858 19.94327
Ar 13.37399 14.66828 17.43502
Ar 11.31427 17.09732 0.87404
Ar 11.50313 20.29517 2.89163
Ar 15.89823 17.52170 3.81923
Ar 14.42885 19.88318 0.67775
Ar 11.76084 17.04385 4.45270
Ar 12.20488 20.15615 8.56101
Ar 15.74402 18.34679 8.23191
Ar 14.03099 20.19449 5.61422
Ar 11.63977 17.60948 10.79863
Ar 11.43412 20.12391 13.67674
Ar 13.34704 17.07842 14.31469
Ar 14.58310 20.38316 11.43192
Ar 11.67061 18.46853 17.18916
Ar 10.57808 20.18299 21.69805
Ar 13.46526 18.61050 19.93483
Ar 14.27158 20.34383 15.71136
Ar 16.81843 22.78293 0.36424
Ar 17.14583 3.04613 2.08351
Ar 20.10596 0.50450 1.29460
Ar 19.09831 2.26486 20.96706
Ar 18.41496 0.61873 4.78413
Ar 17.46877 3.39699 7.51857
Ar 21.62667 2.25119 7.47841
Ar 20.27870 4.29705 4.91039
Ar 17.36743 0.47920 11.67826
Ar 17.99401 4.20560 14.15145
Ar 20.45142 22.73841 13.75680
Ar 20.68864 2.84759 11.53544
Ar 16.40690 22.68541 18.09304
Ar 15.59771 2.53343 20.87048
Ar 19.90125 22.37405 19.39618
Ar 19.03914 2.16358 16.90536
Ar 16.16470 5.40547 22.51782
Ar 17.48822 8.78563 2.18715
Ar 19.45954 5.10627 1.01771
Ar 19.29571 7.88115 21.28625
Ar 16.98745 5.64147 4.53243
Ar 16.70551 7.27629 8.14725
Ar 20.06387 5.11312 8.81315
Ar 19.76908 8.70581 5.32949
Ar 17.33388 4.61047 10.89843
Ar 17.35478 7.80200 14.17302
Ar 20.74581 6.21962 15.49034
Ar 20.26502 8.26393 11.82754
Ar 17.17984 4.91855 18.25876
Ar 16.20411 7.94058 19.78603
Ar 21.95274 3.39110 19.14037
Ar 18.39483 8.49158 17.38096
Ar 15.54100 12.01856 22.48909
Ar 17.50085 13.59590 2.84768
Ar 20.10466 11.32560 2.69439
Ar 20.17974 13.69020 22.50906
Ar 16.68442 10.60084 6.60518
Ar 17.78619 13.36430 9.13265
Ar 20.18175 10.20745 8.56556
Ar 19.51453 13.28492 6.07117
Ar 17.59060 10.09288 10.93319
Ar 15.92092 13.68428 14.02791
Ar 19.32450 10.97195 13.97775
Ar 19.52402 14.22169 12.85720
Ar 16.29317 11.42438 16.84084
Ar 16.58968 14.56256 19.67809
Ar 18.98859 11.45265 19.33269
Ar 19.31663 13.61905 16.50583
Ar 17.00587 16.55943 0.26653
Ar 17.71935 20.34142 3.59756
Ar 21.11802 15.48126 2.81594
Ar 19.95331 19.10711 0.50320
Ar 18.47999 16.89713 5.81638
Ar 18.20580 21.49345 7.77404
Ar 19.12557 17.30106 9.48578
Ar 21.18923 18.75314 5.08106
Ar 16.04679 16.99489 12.17256
Ar 17.73436 20.38323 13.47039
Ar 18.38584 16.66515 14.81932
Ar 20.40299 20.58927 10.52267
Ar 16.56414 17.58782 17.99278
Ar 17.41870 20.21574 20.26442
Ar 19.40536 16.83505 20.31709
Ar 19.39206 19.56233 16.65808
256
frame 38
Ar 22.56731 0.36588 21.57024
Ar 22.44097 3.22618 0.89681
Ar 3.08924 22.36323 3.56249
Ar 3.08735 2.39297 1.33128
Ar 0.05580 1.29999 4.16805
Ar 1.25490 3.95497 9.66887
Ar 2.50064 0.24589 7.87996
Ar 3.73867 2.65724 5.57686
Ar 0.19521 0.07463 10.69658
Ar 0.19742 3.04832 14.42880
Ar 1.95726 22.53775 13.65596
Ar 3.60095 2.82177 12.75927
Ar 22.67928 0.26995 17.34110
Ar 2.57709 3.96874 20.83474
Ar 2.82942 21.84897 19.64908
Ar 4.00869 2.59126 17.35731
Ar 22.45400 6.31602 21.86528
Ar 21.64025 7.67860 2.93816
Ar 2.74495 6.14141 2.02903
Ar 4.32873 9.29017 0.23433
Ar 0.80749 4.66884 5.22298
Ar 22.65231 7.70899 8.61535
Ar 3.45277 5.41483 7.62098
Ar 1.94837 8.09247 5.51424
Ar 0.06802 6.05302 12.34409
Ar 22.51493 9.27069 14.89327
Ar 3.10337 6.50890 14.15981
Ar 2.17836 8.55788 11.50642
Ar 1.04859 5.89355 17.12311
Ar 22.48106 8.97476 19.17338
Ar 3.50034 7.20436 19.91497
Ar 2.74097 8.80528 16.79216
Ar 1.10235 10.83558 0.61388
Ar 2.17538 13.04863 2.67457
Ar 4.46665 10.41048 3.57281
Ar 3.26244 13.41377 21.63642
Ar 22.80162 11.20952 5.10192
Ar 21.57209 14.27594 9.47367
Ar 2.87496 11.27511 9.57521
Ar 2.28642 13.78299 7.13297
Ar 22.61672 11.92246 12.04682
Ar 22.64182 14.75542 14.05072
Ar 2.79167 12.26139 14.39214
Ar 2.83367 14.51361 10.89062
Ar 0.17174 11.96579 16.89598
Ar 0.00319 14.97888 19.88084
Ar 2.53874 10.95135 19.53812
Ar 3.09764 14.58370 17.21836
Ar 0.63559 15.62786 0.34156
Ar 22.34795 20.81796 2.23427
Ar 2.33087 16.66314 3.30887
Ar 2.64147 19.73172 0.01079
Ar 22.08433 15.50244 6.26284
Ar 21.59930 21.25586 7.28570
Ar 1.58065 17.15919 8.96941
Ar 1.84862 19.58759 5.40037
Ar 22.25103 17.19461 11.46182
Ar 22.04258 19.50743 13.81705
Ar 3.21955 16.68286 14.10499
Ar 2.13021 19.63069 11.65633
Ar 21.97518 17.34802 16.67666
Ar 22.56507 19.56070 20.13788
Ar 2.86947 17.28805 19.81137
Ar 1.69676 20.18429 16.57114
Ar 5.27903 22.52273 0.56021
Ar 6.12906 3.52690 3.35883
Ar 8.72284 22.63966 3.30080
Ar 8.41040 3.07749 0.34327
Ar 5.74167 22.59786 6.14621
Ar 5.55423 3.00198 9.19256
Ar 8.91537 22.33013 9.00152
Ar 8.49964 2.37111 6.73238
Ar 5.62465 0.07101 11.16153
Ar 6.44130 2.06581 14.57469
Ar 7.66483 21.34386 14.34369
Ar 8.61655 2.96461 11.41558
Ar 6.00809 22.72934 17.95324
Ar 5.37472 1.86441 20.75504
Ar 8.37124 0.37198 20.93405
Ar 7.94776 2.70344 18.18454
Ar 5.17198 5.52753 22.23288
Ar 7.23101 7.82856 1.38722
Ar 8.65266 5.87310 4.06896
Ar 9.85696 8.70600 22.06022
Ar 5.50589 7.57727 4.85708
Ar 5.74384 8.46572 9.24001
Ar 8.24414 5.31953 9.02056
Ar 8.58790 8.38940 6.61547
Ar 4.51039 5.98014 10.84670
Ar 5.66579 9.59231 13.13924
Ar 7.77238 6.19330 12.50027
Ar 8.94424 9.09775 11.18324
Ar 6.02511 5.69880 17.58845
Ar 6.78596 8.69596 19.54601
Ar 9.03523 5.78531 20.01308
Ar 8.22851 8.50488 15.75524
Ar 6.94172 11.75744 0.14230
Ar 5.88238 14.17667 4.44181
Ar 7.69630 10.58759 4.19873
Ar 9.18161 14.18866 2.49704
Ar 5.70499 11.43263 7.04093
Ar 6.40358 14.89222 8.56784
Ar 10.59242 13.82348 9.35176
Ar 9.34099 14.57244 5.92954
Ar 6.32894 11.61992 10.34986
Ar 6.34749 14.75995 13.47106
Ar 8.77556 12.42373 13.90241
Ar 8.93887 15.57455 11.50825
Ar 5.49459 11.00602 16.25625
Ar 6.47606 14.46655 20.54784
Ar 7.71069 11.72316 18.73326
Ar 8.23542 14.71695 16.69486
Ar 5.34132 16.18177 0.93900
Ar 4.60076 19.34500 3.38728
Ar 7.73033 17.33217 3.83154
Ar 7.92126 19.76762 1.21781
Ar 4.71481 17.25391 6.50016
Ar 5.01910 20.09333 8.64245
Ar 8.63471 17.91324 8.24860
Ar 8.84643 20.30123 5.92824
Ar 5.59458 17.44056 11.41075
Ar 4.44950 19.97273 14.70439
Ar 8.56301 17.94783 14.48847
Ar 8.55291 19.78185 11.17989
Ar 5.52916 17.68923 17.05146
Ar 5.96778 19.53490 20.87953
Ar 9.23547 17.02748 19.68423
Ar 8.34196 19.91265 17.65457
Ar 11.71522 0.44029 0.53993
Ar 10.70582 2.71723 3.21739
Ar 14.28551 22.52213 2.71957
Ar 13.60365 3.27819 0.91661
Ar 11.67315 0.08813 5.56614
Ar 11.45360 2.18368 8.44325
Ar 14.49218 0.09652 8.16548
Ar 14.13838 2.93456 4.98469
Ar 11.25376 0.06857 11.44620
Ar 11.04127 2.88476 13.94588
Ar 14.94607 0.86343 14.65759
Ar 14.47558 2.17944 11.60864
Ar 11.49040 22.25799 16.67789
Ar 11.63170 2.84527 20.18085
Ar 13.40046 22.42597 20.43981
Ar 14.04261 2.65125 17.35399
Ar 10.73281 5.56444 0.50183
Ar 10.90865 8.84904 3.43371
Ar 13.90803 6.52852 3.01900
Ar 13.40223 8.35251 22.41934
Ar 10.98490 5.16541 6.74439
Ar 11.49785 9.47499 8.91777
Ar 14.00540 4.86823 8.79825
Ar 13.54679 7.99330 6.55827
Ar 11.42299 5.59708 11.52534
Ar 11.65980 7.87140 13.94276
Ar 14.08169 4.72484 14.30345
Ar 15.01160 6.93479 11.55068
Ar 11.06558 5.42960 16.90604
Ar 11.62069 8.64580 18.76325
Ar 13.53838 5.94589 20.07904
Ar 14.92033 7.82779 16.56400
Ar 12.06762 11.78288 0.70388
Ar 13.09571 14.43687 3.08269
Ar 14.77406 10.76010 3.31884
Ar 13.36024 15.01592 21.51005
Ar 11.39787 11.95781 5.76094
Ar 12.74494 16.47807 7.56174
Ar 14.35255 11.56056 8.85414
Ar 15.45062 14.81635 6.02933
Ar 11.78287 11.53886 11.74237
Ar 11.24652 14.56198 13.66908
Ar 14.50766 10.47362 13.46492
Ar 13.96704 14.75708 10.75734
Ar 12.28861 11.49551 16.20074
Ar 10.53013 13.88784 19.99519
Ar 13.09786 11.63669 19.99251
Ar 13.34451 14.75358 17.38528
Ar 11.31683 16.92892 1.04286
Ar 11.54304 20.25305 2.82330
Ar 15.83565 17.50063 3.75216
Ar 14.45999 19.91002 0.68883
Ar 11.63071 17.07941 4.44085
Ar 12.12702 20.13788 8.58136
Ar 15.74580 18.20253 8.34859
Ar 14.10170 20.22360 5.61774
Ar 11.65867 17.68729 10.77219
Ar 11.44098 20.20430 13.66161
Ar 13.41173 17.04478 14.35002
Ar 14.54259 20.33146 11.52452
Ar 11.61473 18.42115 17.26851
Ar 10.67379 20.14924 21.72026
Ar 13.47894 18.59960 20.00727
Ar 14.24762 20.42966 15.58632
Ar 16.92290 22.73870 0.42742
Ar 17.11727 3.01234 2.15389
Ar 20.13480 0.54141 1.28720
Ar 19.04311 2.37007 20.92395
Ar 18.41449 0.71579 4.72901
Ar 17.52730 3.42942 7.50720
Ar 21.66765 2.18673 7.49772
Ar 20.31891 4.34361 4.96304
Ar 17.21645 0.43099 11.66826
Ar 17.98076 4.19593 14.25242
Ar 20.51477 22.70712 13.84723
Ar 20.61825 3.04139 11.46947
Ar 16.33973 22.62218 18.06714
Ar 15.52210 2.48180 20.92970
Ar 19.85172 22.40546 19.37440
Ar 19.05774 2.24544 16.86901
Ar 16.23649 5.46922 22.48450
Ar 17.57561 8.73868 2.24286
Ar 19.39019 5.16532 0.99056
Ar 19.38525 7.82910 21.21859
Ar 17.03443 5.74588 4.50669
Ar 16.69287 7.32556 8.15613
Ar 20.17652 5.17745 8.91630
Ar 19.72439 8.69978 5.36836
Ar 17.20605 4.63891 10.86946
Ar 17.34987 7.74910 14.10908
Ar 20.70172 6.17283 15.51366
Ar 20.27020 8.18801 11.86201
Ar 17.20751 4.91851 18.19396
Ar 16.19437 8.01172 19.81825
Ar 21.91183 3.36706 19.09510
Ar 18.41361 8.43097 17.36616
Ar 15.61702 12.13188 22.50811
Ar 17.53717 13.59547 2.80297
Ar 20.25875 11.31717 2.69886
Ar 20.22671 13.65848 22.58823
Ar 16.67019 10.70159 6.57748
Ar 17.89549 13.23905 9.12838
Ar 20.21006 10.12835 8.57592
Ar 19.52958 13.18661 6.04148
Ar 17.53966 10.02324 10.95059
Ar 16.03503 13.67341 13.98720
Ar 19.43051 10.95532 13.98379
Ar 19.53917 14.10077 12.83891
Ar 16.36831 11.44984 16.82438
Ar 16.59224 14.59205 19.68402
Ar 18.94594 11.40691 19.39545
Ar 19.39371 13.60124 16.63654
Ar 16.95217 16.57957 0.26093
Ar 17.57542 20.34856 3.58216
Ar 21.14448 15.47668 2.89829
Ar 20.07183 19.02593 0.51480
Ar 18.53022 16.80818 5.72153
Ar 18.27236 21.57129 7.61643
Ar 19.12183 17.33861 9.46188
Ar 21.19066 18.69378 5.13500
Ar 16.04831 16.99069 12.08221
Ar 17.77012 20.43580 13.37285
Ar 18.26591 16.60249 14.91557
Ar 20.38865 20.59183 10.74771
Ar 16.54069 17.54162 17.99866
Ar 17.46694 20.13453 20.39538
Ar 19.39575 16.83362 20.32323
Ar 19.33949 19.59630 16.66973
256
frame 39
Ar 22.62113 0.35949 21.48963
Ar 22.44529 3.23553 0.87167
Ar 3.13585 22.45969 3.63107
Ar 3.05661 2.46552 1.46915
Ar 0.07424 1.28435 4.22478
Ar 1.31649 3.95444 9.73780
Ar 2.43591 0.28709 7.78258
Ar 3.67742 2.63089 5.62633
Ar 0.38312 0.01960 10.63117
Ar 0.26399 3.13806 14.50237
Ar 1.95309 22.53829 13.71930
Ar 3.58870 2.72062 12.73455
Ar 22.62073 0.33390 17.35524
Ar 2.51517 4.00784 20.81293
Ar 2.83112 21.76231 19.54289
Ar 3.99094 2.47311 17.40111
Ar 22.40724 6.40319 21.82546
Ar 21.76853 7.71355 2.97712
Ar 2.77084 6.10313 1.96190
Ar 4.41607 9.38941 0.16979
Ar 0.70840 4.68864 5.10259
Ar 22.79716 7.66739 8.68423
Ar 3.45059 5.41302 7.50321
Ar 1.88086 8.14640 5.52650
Ar 0.15639 6.04883 12.44196
Ar 22.46862 9.29170 14.86906
Ar 3.07678 6.62831 14.17867
Ar 2.14557 8.56659 11.49221
Ar 1.11725 5.84035 16.97073
Ar 22.44906 8.98170 19.15159
Ar 3.51886 7.32183 19.89332
Ar 2.65568 9.00060 16.85551
Ar 1.19491 10.70282 0.60860
Ar 2.27407 13.09568 2.72074
Ar 4.45726 10.49527 3.43532
Ar 3.26940 13.45150 21.67360
Ar 22.75868 11.19991 5.02843
Ar 21.57310 14.26927 9.50108
Ar 2.76746 11.23101 9.49663
Ar 2.38287 13.77621 7.22953
Ar 22.63888 11.96886 12.06278
Ar 22.77963 14.71222 14.00290
Ar 2.73508 12.30606 14.41068
Ar 2.83763 14.55890 10.94729
Ar 0.09354 11.94976 16.88653
Ar 22.81279 15.06398 19.91992
Ar 2.42662 11.04534 19.50169
Ar 3.12007 14.64095 17.22653
Ar 0.60717 15.56965 0.34041
Ar 22.38240 20.83138 2.38107
Ar 2.14110 16.58676 3.43304
Ar 2.54920 19.71637 0.07369
Ar 22.05211 15.47040 6.29905
Ar 21.67777 21.19697 7.24441
Ar 1.63628 17.17302 8.95915
Ar 1.86754 19.59634 5.52157
Ar 22.11265 17.17865 11.38162
Ar 22.00855 19.44470 13.86162
Ar 3.16531 16.71251 14.19517
Ar 2.10101 19.58901 11.55698
Ar 21.97028 17.26348 16.79958
Ar 22.66980 19.64067 20.05161
Ar 2.89952 17.22590 19.69004
Ar 1.65197 20.21677 16.53224
Ar 5.30251 22.61061 0.53636
Ar 6.10739 3.49486 3.19380
Ar 8.67509 22.53877 3.29227
Ar 8.52309 2.99609 0.32662
Ar 5.75294 22.63288 6.17742
Ar 5.60965 2.96295 9.15576
Ar 8.88066 22.41350 8.96237
Ar 8.53157 2.29014 6.74258
Ar 5.66311 0.08369 10.99571
Ar 6.50217 2.05232 14.59003
Ar 7.68050 21.32758 14.36223
Ar 8.54355 2.92332 11.38281
Ar 6.06368 22.69107 17.94064
Ar 5.40400 1.90302 20.78921
Ar 8.40417 0.33807 20.96760
Ar 8.06559 2.76848 18.26017
Ar 5.25670 5.53191 22.22016
Ar 7.23136 7.74376 1.35146
Ar 8.53893 5.83603 4.03354
Ar 9.81548 8.81790 22.04799
Ar 5.53339 7.61548 4.84857
Ar 5.69327 8.53358 9.29612
Ar 8.18609 5.35667 9.00582
Ar 8.65055 8.42620 6.71049
Ar 4.52943 5.88992 10.86328
Ar 5.65090 9.65611 13.27382
Ar 7.66155 6.24398 12.52201
Ar 8.84963 9.10164 11.26528
Ar 6.08152 5.66391 17.64540
Ar 6.86220 8.52403 19.59301
Ar 9.03475 5.67810 19.97404
Ar 8.14072 8.48991 15.64125
Ar 6.90205 11.77961 0.16078
Ar 5.79701 14.16084 4.44112
Ar 7.70396 10.63232 4.26753
Ar 9.25071 14.16295 2.41454
Ar 5.77540 11.44090 7.07334
Ar 6.37538 14.94940 8.51238
Ar 10.69790 13.73042 9.34176
Ar 9.33505 14.56907 5.94128
Ar 6.35360 11.61977 10.26773
Ar 6.31311 14.79484 13.41941
Ar 8.71649 12.43334 13.90477
Ar 8.88177 15.69163 11.47076
Ar 5.42142 11.05840 16.14075
Ar 6.44287 14.48956 20.58892
Ar 7.74540 11.63023 18.72227
Ar 8.21610 14.76489 16.66608
Ar 5.24213 16.14654 0.93059
Ar 4.62081 19.29837 3.45460
Ar 7.77068 17.31427 3.81280
Ar 8.06024 19.74044 1.10744
Ar 4.69306 17.12298 6.52520
Ar 5.09725 20.08814 8.70444
Ar 8.73723 17.95967 8.23782
Ar 8.80484 20.35110 5.87965
Ar 5.70628 17.38149 11.31933
Ar 4.41026 20.09323 14.64996
Ar 8.53997 17.90290 14.50408
Ar 8.51074 19.66247 11.11254
Ar 5.52085 17.59326 17.18786
Ar 5.96635 19.37332 20.80806
Ar 9.31774 17.03903 19.64518
Ar 8.25245 19.93283 17.67549
Ar 11.71127 0.45357 0.50648
Ar 10.72807 2.72574 3.21808
Ar 14.28153 22.43552 2.72422
Ar 13.64074 3.38473 1.06220
Ar 11.60711 0.00837 5.58123
Ar 11.39172 2.14629 8.40332
Ar 14.40634 0.17130 8.22678
Ar 14.14733 3.07148 5.03789
Ar 11.35587 0.08348 11.43078
Ar 11.13149 2.84863 13.92503
Ar 14.90911 0.77176 14.59490
Ar 14.43099 2.27742 11.55428
Ar 11.46036 22.25019 16.63831
Ar 11.67912 2.76659 20.13114
Ar 13.40450 22.48810 20.38535
Ar 14.06206 2.65156 17.32689
Ar 10.64742 5.62951 0.50378
Ar 10.81860 8.95400 3.37422
Ar 13.80104 6.41546 3.09755
Ar 13.36630 8.49220 22.45930
Ar 10.92103 5.29072 6.86427
Ar 11.44847 9.55836 8.87741
Ar 14.02648 4.75292 8.85167
Ar 13.58248 8.07032 6.61844
Ar 11.35459 5.57109 11.53223
Ar 11.69037 7.94820 13.85034
Ar 14.05052 4.71177 14.24426
Ar 14.92320 6.94356 11.65053
Ar 11.06516 5.43041 16.91326
Ar 11.70762 8.66281 18.86022
Ar 13.53797 5.87195 19.99235
Ar 14.85689 7.77351 16.54292
Ar 12.26752 11.69358 0.66869
Ar 13.17393 14.41440 3.17271
Ar 14.79594 10.81848 3.31261
Ar 13.34239 14.92836 21.42024
Ar 11.44620 11.99653 5.66218
Ar 12.76340 16.50821 7.52105
Ar 14.19412 11.57520 8.87863
Ar 15.35948 14.75420 6.08639
Ar 11.85205 11.55160 11.77364
Ar 11.21389 14.57096 13.66375
Ar 14.58202 10.47268 13.45370
Ar 13.81569 14.75773 10.67204
Ar 12.19048 11.51553 16.15432
Ar 10.48916 13.90932 20.02117
Ar 13.02780 11.63856 20.02971
Ar 13.31932 14.84745 17.34178
Ar 11.31071 16.77035 1.17688
Ar 11.56441 20.21210 2.75386
Ar 15.72053 17.45560 3.65837
Ar 14.49799 19.89169 0.66344
Ar 11.47058 17.15947 4.45206
Ar 12.03830 20.15424 8.57863
Ar 15.75197 18.06581 8.46703
Ar 14.18338 20.24174 5.61139
Ar 11.68202 17.74020 10.78764
Ar 11.42143 20.26582 13.63815
Ar 13.49106 17.03498 14.39701
Ar 14.49699 20.28676 11.61449
Ar 11.53570 18.36723 17.30336
Ar 10.76722 20.11241 21.73832
Ar 13.52806 18.58583 20.11811
Ar 14.26989 20.48707 15.47862
Ar 17.00841 22.67663 0.46226
Ar 17.06046 2.94844 2.24366
Ar 20.16495 0.58937 1.29903
Ar 18.97655 2.52378 20.91839
Ar 18.42353 0.84256 4.66939
Ar 17.56695 3.44312 7.47666
Ar 21.70947 2.10901 7.52768
Ar 20.31583 4.38837 5.00145
Ar 17.12143 0.38622 11.63132
Ar 17.95326 4.18244 14.34706
Ar 20.58311 22.70018 13.94496
Ar 20.55186 3.20623 11.43548
Ar 16.27057 22.56399 18.03425
Ar 15.43928 2.41465 20.95985
Ar 19.81900 22.39576 19.32336
Ar 19.09569 2.29827 16.84299
Ar 16.29732 5.56755 22.45282
Ar 17.66685 8.68203 2.28962
Ar 19.36719 5.25156 0.96566
Ar 19.46939 7.78766 21.15181
Ar 17.08360 5.85871 4.49275
Ar 16.70021 7.37334 8.16847
Ar 20.29881 5.28493 8.99337
Ar 19.63847 8.70433 5.45120
Ar 17.11391 4.62475 10.82594
Ar 17.35811 7.70147 14.02061
Ar 20.65193 6.12201 15.53355
Ar 20.28492 8.10235 11.89131
Ar 17.22490 4.92351 18.13403
Ar 16.16752 8.11783 19.89022
Ar 21.88073 3.35268 19.05109
Ar 18.48144 8.37648 17.33382
Ar 15.70808 12.24405 22.53621
Ar 17.55973 13.60771 2.76028
Ar 20.41361 11.30414 2.68993
Ar 20.26842 13.62819 22.66032
Ar 16.68514 10.79346 6.52064
Ar 17.99404 13.12365 9.14243
Ar 20.22905 10.07894 8.58938
Ar 19.53864 13.06896 5.99374
Ar 17.44716 9.96494 10.96436
Ar 16.14594 13.67554 13.94380
Ar 19.52459 10.91077 14.01589
Ar 19.53493 14.00158 12.77254
Ar 16.42902 11.47125 16.80899
Ar 16.59271 14.58416 19.70083
Ar 18.90850 11.35732 19.48062
Ar 19.47912 13.59325 16.76309
Ar 16.89398 16.59868 0.25522
Ar 17.45127 20.37506 3.55612
Ar 21.14740 15.47040 2.98521
Ar 20.16261 18.92661 0.50864
Ar 18.56614 16.68845 5.65190
Ar 18.29362 21.63958 7.47871
Ar 19.11982 17.36856 9.43730
Ar 21.21160 18.64822 5.14755
Ar 16.09455 17.01821 11.98882
Ar 17.80184 20.43965 13.30292
Ar 18.14622 16.55626 15.01791
Ar 20.36035 20.58527 10.96763
Ar 16.50270 17.51933 17.98533
Ar 17.49967 20.03302 20.54946
Ar 19.40186 16.83514 20.32368
Ar 19.27642 19.65892 16.69037
256
frame 40
Ar 22.68936 0.34993 21.40233
Ar 22.45396 3.26154 0.85087
Ar 3.18146 22.55413 3.69504
Ar 3.02559 2.54498 1.60032
Ar 0.07953 1.26408 4.27429
Ar 1.36264 3.93480 9.82045
Ar 2.36586 0.30913 7.69064
Ar 3.61642 2.60336 5.64704
Ar 0.55404 22.79994 10.56097
Ar 0.32553 3.21345 14.58323
Ar 1.94195 22.54327 13.80381
Ar 3.56677 2.63726 12.69531
Ar 22.57408 0.39788 17.35360
Ar 2.41429 4.02973 20.78148
Ar 2.84149 21.68422 19.44850
Ar 3.94179 2.38457 17.43638
Ar 22.41280 6.46992 21.79631
Ar 21.91866 7.73472 2.98969
Ar 2.78929 6.07418 1.90327
Ar 4.48267 9.46543 0.06842
Ar 0.67686 4.72516 4.98250
Ar 0.14361 7.62498 8.75083
Ar 3.46311 5.46214 7.37785
Ar 1.81782 8.20493 5.53330
Ar 0.21616 6.00747 12.54212
Ar 22.43663 9.27088 14.82129
Ar 3.09041 6.73491 14.21272
Ar 2.12395 8.60460 11.47635
Ar 1.17885 5.77035 16.84347
Ar 22.40084 8.97661 19.12124
Ar 3.50876 7.45758 19.85782
Ar 2.57524 9.18856 16.88478
Ar 1.25409 10.54531 0.58055
Ar 2.37448 13.18055 2.78653
Ar 4.40888 10.60029 3.29957
Ar 3.27501 13.51409 21.74391
Ar 22.74886 11.19409 4.99476
Ar 21.57101 14.24424 9.53287
Ar 2.66298 11.18377 9.41193
Ar 2.48410 13.78958 7.30328
Ar 22.66402 11.97130 12.05837
Ar 0.10458 14.70204 13.98863
Ar 2.66910 12.35236 14.40386
Ar 2.84807 14.59832 11.02322
Ar 0.00984 11.97093 16.89588
Ar 22.78535 15.13406 19.91273
Ar 2.32528 11.14511 19.48058
Ar 3.14061 14.68300 17.23738
Ar 0.59663 15.52427 0.35904
Ar 22.44483 20.85041 2.54124
Ar 1.95083 16.51654 3.56885
Ar 2.45825 19.69982 0.13830
Ar 22.05179 15.44374 6.34655
Ar 21.79477 21.17016 7.23130
Ar 1.71121 17.19390 8.89788
Ar 1.87373 19.61044 5.66789
Ar 21.95885 17.14726 11.31334
Ar 21.98090 19.39593 13.94516
Ar 3.10372 16.74198 14.27918
Ar 2.08440 19.54995 11.46039
Ar 21.97249 17.16556 16.93030
Ar 22.76531 19.71442 19.96330
Ar 2.92841 17.17812 19.58564
Ar 1.57558 20.22822 16.51544
Ar 5.33497 22.65923 0.54521
Ar 6.08726 3.45426 3.01694
Ar 8.61526 22.46833 3.25868
Ar 8.61021 2.90821 0.31474
Ar 5.78245 22.66040 6.20872
Ar 5.65167 2.91944 9.09478
Ar 8.83071 22.49125 8.91369
Ar 8.51852 2.22516 6.70853
Ar 5.70404 0.07146 10.85288
Ar 6.57856 2.03842 14.61366
Ar 7.71059 21.33597 14.37386
Ar 8.47427 2.84706 11.35975
Ar 6.12809 22.61313 17.91824
Ar 5.41035 1.98858 20.80317
Ar 8.47160 0.25862 20.99338
Ar 8.19672 2.82471 18.32262
Ar 5.38355 5.51967 22.22614
Ar 7.24121 7.66173 1.33208
Ar 8.45520 5.79596 4.00538
Ar 9.77102 8.95523 22.02450
Ar 5.55994 7.62153 4.85729
Ar 5.64992 8.59059 9.30975
Ar 8.11943 5.42908 8.97926
Ar 8.72116 8.45007 6.82965
Ar 4.52296 5.75676 10.91648
Ar 5.62983 9.67578 13.32303
Ar 7.54125 6.26803 12.57611
Ar 8.76916 9.13694 11.34316
Ar 6.12439 5.62828 17.68880
Ar 6.93222 8.33489 19.66033
Ar 9.04436 5.57825 19.95212
Ar 8.06360 8.47199 15.53554
Ar 6.88209 11.81176 0.18643
Ar 5.70780 14.14174 4.43718
Ar 7.75338 10.70231 4.30773
Ar 9.31265 14.11847 2.32380
Ar 5.82242 11.45120 7.04678
Ar 6.36360 14.98338 8.47588
Ar 10.79906 13.62753 9.29020
Ar 9.29686 14.59965 5.97425
Ar 6.40638 11.68535 10.26985
Ar 6.22585 14.80989 13.40787
Ar 8.63580 12.37268 13.90854
Ar 8.81475 15.83454 11.40669
Ar 5.36361 11.15340 16.10806
Ar 6.42364 14.53176 20.61573
Ar 7.80693 11.57162 18.70992
Ar 8.19926 14.81911 16.64582
Ar 5.14021 16.11449 0.92751
Ar 4.67473 19.24175 3.50107
Ar 7.80999 17.29476 3.80055
Ar 8.18371 19.70874 1.00051
Ar 4.65382 17.00990 6.52869
Ar 5.17497 20.07719 8.76933
Ar 8.84258 17.95240 8.21727
Ar 8.76746 20.40171 5.82605
Ar 5.79186 17.35183 11.20839
Ar 4.40437 20.20894 14.57120
Ar 8.51993 17.83965 14.52022
Ar 8.46912 19.55959 11.08851
Ar 5.51814 17.49115 17.32035
Ar 5.96371 19.21422 20.73341
Ar 9.37396 17.07709 19.62137
Ar 8.17454 19.95321 17.70297
Ar 11.67604 0.46719 0.47376
Ar 10.75191 2.74803 3.23247
Ar 14.29074 22.41394 2.78215
Ar 13.67481 3.49567 1.20991
Ar 11.54150 22.74861 5.59159
Ar 11.37125 2.11591 8.40470
Ar 14.33436 0.24724 8.29159
Ar 14.15726 3.20653 5.09408
Ar 11.46896 0.10977 11.41164
Ar 11.21233 2.79480 13.91847
Ar 14.89016 0.70744 14.51866
Ar 14.32633 2.41163 11.47252
Ar 11.41728 22.25976 16.61442
Ar 11.70612 2.69376 20.08903
Ar 13.41085 22.51448 20.31322
Ar 14.07371 2.67035 17.32375
Ar 10.59044 5.71072 0.51830
Ar 10.73623 9.05291 3.30866
Ar 13.68498 6.31181 3.17260
Ar 13.34668 8.62191 22.50740
Ar 10.87466 5.42908 6.96205
Ar 11.36819 9.62743 8.83512
Ar 14.04558 4.63791 8.89105
Ar 13.62321 8.14233 6.65307
Ar 11.28057 5.51746 11.49684
Ar 11.72571 8.05855 13.79126
Ar 14.03582 4.70975 14.20054
Ar 14.78730 7.00515 11.74435
Ar 11.07047 5.42867 16.91488
Ar 11.77836 8.67090 18.93979
Ar 13.52857 5.76411 19.89895
Ar 14.77247 7.71783 16.52141
Ar 12.44278 11.62063 0.65308
Ar 13.26649 14.36758 3.25326
Ar 14.81067 10.87735 3.30737
Ar 13.36056 14.86802 21.35476
Ar 11.52500 11.99870 5.56207
Ar 12.75679 16.53516 7.50682
Ar 14.05380 11.60819 8.90816
Ar 15.29116 14.66742 6.14647
Ar 11.89979 11.56141 11.81775
Ar 11.22851 14.59516 13.67638
Ar 14.68540 10.44775 13.45829
Ar 13.66821 14.74730 10.59168
Ar 12.08843 11.53137 16.10581
Ar 10.39968 13.90095 20.03257
Ar 12.99341 11.62757 20.05074
Ar 13.29679 14.94181 17.30810
Ar 11.30390 16.62769 1.24457
Ar 11.56585 20.17613 2.68250
Ar 15.57124 17.38688 3.55507
Ar 14.54541 19.82425 0.59848
Ar 11.29531 17.26124 4.50469
Ar 11.94488 20.21128 8.54296
Ar 15.75862 17.94224 8.57965
Ar 14.27037 20.24765 5.60736
Ar 11.71081 17.76136 10.84763
Ar 11.36927 20.29900 13.60946
Ar 13.58126 17.04421 14.44660
Ar 14.44741 20.25094 11.69727
Ar 11.45870 18.31788 17.30060
Ar 10.86156 20.07571 21.74856
Ar 13.60321 18.56461 20.24050
Ar 14.32745 20.48396 15.40115
Ar 17.06524 22.59877 0.46988
Ar 16.98824 2.88628 2.33101
Ar 20.20935 0.64454 1.32667
Ar 18.90644 2.69837 20.93540
Ar 18.44626 0.98162 4.61026
Ar 17.59766 3.44612 7.43265
Ar 21.74841 2.02957 7.57010
Ar 20.24424 4.42599 5.03003
Ar 17.07024 0.35485 11.56298
Ar 17.89746 4.17349 14.40652
Ar 20.65479 22.71848 14.05087
Ar 20.49538 3.31373 11.46576
Ar 16.20678 22.50560 17.99870
Ar 15.35932 2.35447 20.97722
Ar 19.78641 22.36783 19.26551
Ar 19.15977 2.30622 16.83977
Ar 16.33049 5.67887 22.41692
Ar 17.75974 8.62593 2.32345
Ar 19.38759 5.34436 0.95996
Ar 19.51522 7.76879 21.07570
Ar 17.12872 5.97244 4.49012
Ar 16.72686 7.41736 8.18628
Ar 20.40787 5.44131 9.01165
Ar 19.53277 8.70668 5.54452
Ar 17.06297 4.58041 10.77932
Ar 17.37762 7.66324 13.92891
Ar 20.60730 6.06919 15.55013
Ar 20.30222 8.01325 11.90955
Ar 17.22727 4.94101 18.08474
Ar 16.13046 8.25307 19.97673
Ar 21.86077 3.35645 19.01190
Ar 18.57365 8.33079 17.29566
Ar 15.81353 12.35274 22.56736
Ar 17.57498 13.62847 2.72226
Ar 20.53879 11.28860 2.64671
Ar 20.30306 13.60068 22.72237
Ar 16.70841 10.87833 6.45311
Ar 18.08034 13.01992 9.17373
Ar 20.24452 10.05207 8.61619
Ar 19.54648 12.93794 5.92934
Ar 17.33150 9.91260 10.97618
Ar 16.24503 13.68617 13.89677
Ar 19.59255 10.84161 14.07122
Ar 19.52625 13.94245 12.67347
Ar 16.47662 11.48603 16.79451
Ar 16.59362 14.54114 19.72592
Ar 18.87485 11.30237 19.58575
Ar 19.57070 13.59661 16.88134
Ar 16.83329 16.61644 0.24543
Ar 17.34648 20.42006 3.52448
Ar 21.12913 15.46096 3.06333
Ar 20.23795 18.81697 0.49368
Ar 18.57138 16.54212 5.59662
Ar 18.28113 21.69584 7.36350
Ar 19.11920 17.39185 9.40736
Ar 21.24787 18.61007 5.11734
Ar 16.16895 17.05558 11.89665
Ar 17.82082 20.38889 13.27854
Ar 18.03709 16.51760 15.11129
Ar 20.33639 20.58070 11.15067
Ar 16.44738 17.52584 17.96369
Ar 17.51880 19.92252 20.71539
Ar 19.42211 16.83609 20.31750
Ar 19.21118 19.73756 16.71589
256
frame 41
Ar 22.76537 0.34207 21.31315
Ar 22.46725 3.30682 0.83067
Ar 3.22992 22.61878 3.75006
Ar 2.98657 2.62039 1.71549
Ar 0.07078 1.24317 4.31649
Ar 1.40104 3.90224 9.90319
Ar 2.29361 0.29879 7.60287
Ar 3.57109 2.59673 5.62581
Ar 0.69953 22.76370 10.50393
Ar 0.37863 3.25353 14.66775
Ar 1.91105 22.55637 13.89829
Ar 3.54430 2.56908 12.64615
Ar 22.54677 0.45351 17.33267
Ar 2.29580 4.04616 20.74800
Ar 2.87183 21.62199 19.36942
Ar 3.86725 2.31923 17.46274
Ar 22.48478 6.50864 21.78521
Ar 22.07260 7.74914 2.99028
Ar 2.80086 6.06357 1.85165
Ar 4.53283 9.50252 22.75172
Ar 0.70425 4.77525 4.86015
Ar 0.33784 7.59341 8.80725
Ar 3.48422 5.55588 7.26714
Ar 1.76663 8.26428 5.53498
Ar 0.24640 5.94429 12.63367
Ar 22.43984 9.20390 14.76155
Ar 3.15818 6.84024 14.25432
Ar 2.11678 8.65815 11.47601
Ar 1.23124 5.70060 16.76087
Ar 22.33994 8.96250 19.08006
Ar 3.47659 7.59259 19.82239
Ar 2.49629 9.34053 16.85888
Ar 1.28315 10.38685 0.55096
Ar 2.45045 13.28924 2.84574
Ar 4.36467 10.68662 3.18566
Ar 3.27617 13.58684 21.83813
Ar 22.78833 11.19574 5.01864
Ar 21.56759 14.19404 9.56233
Ar 2.56667 11.13454 9.32454
Ar 2.58820 13.83417 7.34548
Ar 22.68973 11.92646 12.03310
Ar 0.23891 14.73376 14.00095
Ar 2.60218 12.39217 14.37521
Ar 2.86334 14.62932 11.11276
Ar 22.74620 12.02083 16.91402
Ar 22.74714 15.18605 19.86701
Ar 2.23433 11.27230 19.50321
Ar 3.15707 14.69194 17.24212
Ar 0.60033 15.49295 0.40162
Ar 22.52322 20.87162 2.70218
Ar 1.76275 16.47103 3.71994
Ar 2.37029 19.68214 0.20262
Ar 22.08165 15.41739 6.40804
Ar 21.92842 21.17198 7.24672
Ar 1.78968 17.21432 8.80144
Ar 1.88321 19.62778 5.82590
Ar 21.82032 17.11806 11.26916
Ar 21.96345 19.34475 14.05876
Ar 3.04315 16.78140 14.35443
Ar 2.07708 19.51759 11.37824
Ar 21.97553 17.06440 17.06030
Ar 0.01864 19.77403 19.87520
Ar 2.94117 17.15487 19.51935
Ar 1.47984 20.21467 16.51192
Ar 5.37377 22.67419 0.58567
Ar 6.07143 3.40516 2.83966
Ar 8.54618 22.44465 3.18482
Ar 8.67745 2.82309 0.30809
Ar 5.82510 22.67853 6.24371
Ar 5.67489 2.88546 8.99933
Ar 8.77240 22.53981 8.87857
Ar 8.46630 2.19303 6.62140
Ar 5.74445 0.03127 10.74678
Ar 6.66188 2.02712 14.64361
Ar 7.75790 21.36252 14.37709
Ar 8.41365 2.75160 11.34455
Ar 6.18553 22.53669 17.89378
Ar 5.40962 2.10781 20.79374
Ar 8.55584 0.13955 21.00453
Ar 8.32623 2.83083 18.35627
Ar 5.51945 5.48602 22.22282
Ar 7.26214 7.59844 1.32782
Ar 8.41002 5.75011 3.99450
Ar 9.72516 9.11215 21.99455
Ar 5.57608 7.62084 4.87635
Ar 5.60099 8.61545 9.30006
Ar 8.03707 5.52443 8.95847
Ar 8.78113 8.46618 6.95056
Ar 4.49215 5.61125 10.97892
Ar 5.59653 9.64955 13.26746
Ar 7.42105 6.26086 12.65650
Ar 8.71079 9.20007 11.41387
Ar 6.14635 5.58307 17.71099
Ar 6.99997 8.16661 19.74730
Ar 9.08103 5.50827 19.96980
Ar 8.00340 8.45117 15.44705
Ar 6.89213 11.86504 0.22059
Ar 5.62055 14.12105 4.42879
Ar 7.82459 10.78935 4.31856
Ar 9.35410 14.04114 2.24161
Ar 5.84186 11.46445 6.97783
Ar 6.38045 14.97937 8.46835
Ar 10.85541 13.52054 9.19861
Ar 9.23711 14.64510 6.01986
Ar 6.47842 11.80990 10.34631
Ar 6.10213 14.80296 13.43053
Ar 8.54744 12.26643 13.91175
Ar 8.77463 15.96218 11.32312
Ar 5.32967 11.30060 16.17455
Ar 6.42199 14.58982 20.62385
Ar 7.88162 11.52799 18.69779
Ar 8.18531 14.87257 16.63500
Ar 5.03609 16.08763 0.93299
Ar 4.74288 19.18304 3.53352
Ar 7.83745 17.27306 3.78891
Ar 8.27900 19.66858 0.90435
Ar 4.58657 16.93367 6.49955
Ar 5.24986 20.05388 8.82513
Ar 8.95318 17.89631 8.16934
Ar 8.73117 20.42918 5.79234
Ar 5.81833 17.35270 11.08246
Ar 4.42480 20.30682 14.48231
Ar 8.50230 17.76828 14.53692
Ar 8.43605 19.49981 11.10916
Ar 5.53469 17.39157 17.43187
Ar 5.96032 19.05859 20.66103
Ar 9.39280 17.13405 19.62694
Ar 8.12522 19.95180 17.73306
Ar 11.62463 0.48528 0.44579
Ar 10.77400 2.77728 3.26337
Ar 14.30713 22.44445 2.86569
Ar 13.70047 3.58849 1.33546
Ar 11.48122 22.66547 5.59588
Ar 11.38325 2.10763 8.43830
Ar 14.28288 0.31745 8.35730
Ar 14.16823 3.33356 5.15727
Ar 11.58486 0.14225 11.38227
Ar 11.27376 2.72050 13.92351
Ar 14.88556 0.70322 14.42134
Ar 14.18929 2.54155 11.39551
Ar 11.36759 22.28245 16.60431
Ar 11.70345 2.63282 20.05489
Ar 13.40924 22.48410 20.22680
Ar 14.08238 2.70086 17.33176
Ar 10.55583 5.80610 0.54359
Ar 10.66681 9.13968 3.23424
Ar 13.56149 6.24029 3.25646
Ar 13.35323 8.68888 22.54387
Ar 10.85578 5.56911 7.03720
Ar 11.25361 9.67966 8.80240
Ar 14.05641 4.54600 8.89424
Ar 13.66613 8.21045 6.66458
Ar 11.20158 5.44869 11.43427
Ar 11.76134 8.18795 13.75331
Ar 14.04059 4.71786 14.18306
Ar 14.62501 7.09842 11.81022
Ar 11.08209 5.42533 16.90878
Ar 11.82948 8.65891 18.99750
Ar 13.52416 5.64223 19.80700
Ar 14.67980 7.66220 16.50051
Ar 12.57432 11.60844 0.67640
Ar 13.35893 14.31181 3.32157
Ar 14.82441 10.93207 3.30456
Ar 13.40410 14.83932 21.31326
Ar 11.62138 11.97857 5.46483
Ar 12.72000 16.56362 7.51373
Ar 13.95749 11.65827 8.92797
Ar 15.25255 14.55884 6.21237
Ar 11.92673 11.56174 11.88150
Ar 11.26101 14.62944 13.69783
Ar 14.80753 10.40599 13.48170
Ar 13.56239 14.74839 10.53790
Ar 11.98489 11.54447 16.05562
Ar 10.27375 13.86286 20.03514
Ar 12.99570 11.61467 20.05127
Ar 13.27546 15.02812 17.28969
Ar 11.31305 16.51486 1.24338
Ar 11.55373 20.15072 2.60682
Ar 15.40359 17.30573 3.45440
Ar 14.60158 19.73301 0.52133
Ar 11.12194 17.36991 4.59685
Ar 11.84839 20.29528 8.48457
Ar 15.75733 17.83752 8.66684
Ar 14.35616 20.24022 5.61567
Ar 11.74826 17.76493 10.93766
Ar 11.28892 20.30257 13.58426
Ar 13.68255 17.06977 14.48777
Ar 14.39723 20.22527 11.76726
Ar 11.40574 18.28446 17.25873
Ar 10.96140 20.04348 21.74491
Ar 13.69694 18.52779 20.34654
Ar 14.40204 20.40433 15.36171
Ar 17.09451 22.51236 0.45516
Ar 16.90066 2.85430 2.38804
Ar 20.26756 0.70046 1.36527
Ar 18.83830 2.87818 20.96497
Ar 18.49616 1.10751 4.57343
Ar 17.62202 3.44257 7.38066
Ar 21.78039 1.95863 7.62504
Ar 20.12628 4.45417 5.05367
Ar 17.03978 0.34207 11.46803
Ar 17.80787 4.16785 14.42342
Ar 20.72683 22.75819 14.16430
Ar 20.44709 3.37015 11.55352
Ar 16.15371 22.44557 17.96089
Ar 15.29422 2.32049 20.99581
Ar 19.74478 22.33451 19.21798
Ar 19.24687 2.27008 16.85936
Ar 16.33252 5.78852 22.37796
Ar 17.85402 8.58389 2.33594
Ar 19.44276 5.43217 0.98058
Ar 19.50315 7.77611 20.98546
Ar 17.15580 6.07632 4.50127
Ar 16.77153 7.45532 8.20974
Ar 20.48770 5.62377 8.97605
Ar 19.42607 8.69857 5.62498
Ar 17.04383 4.53244 10.74209
Ar 17.40451 7.63482 13.85008
Ar 20.57826 6.01123 15.56129
Ar 20.31910 7.92660 11.91230
Ar 17.21453 4.97134 18.04781
Ar 16.08456 8.41154 20.05687
Ar 21.85106 3.38623 18.98396
Ar 18.66938 8.30102 17.26292
Ar 15.93156 12.45407 22.59850
Ar 17.58756 13.65642 2.69315
Ar 20.61401 11.26891 2.55379
Ar 20.32878 13.57872 22.76970
Ar 16.72139 10.95416 6.38755
Ar 18.15346 12.92981 9.21695
Ar 20.26451 10.04022 8.66476
Ar 19.56213 12.80440 5.85276
Ar 17.20928 9.86353 10.98350
Ar 16.32165 13.69799 13.84607
Ar 19.61499 10.77103 14.13926
Ar 19.52644 13.91746 12.55491
Ar 16.51464 11.49358 16.78181
Ar 16.59976 14.47542 19.74995
Ar 18.84339 11.24346 19.70516
Ar 19.66092 13.61266 16.99191
Ar 16.77303 16.63128 0.22659
Ar 17.26034 20.47194 3.49053
Ar 21.09207 15.44518 3.12119
Ar 20.30871 18.70464 0.47967
Ar 18.54737 16.38106 5.54965
Ar 18.25034 21.73893 7.26848
Ar 19.11442 17.41033 9.36275
Ar 21.28634 18.57248 5.05575
Ar 16.26045 17.08486 11.82612
Ar 17.80447 20.29504 13.31301
Ar 17.94917 16.48407 15.18379
Ar 20.34094 20.58559 11.26773
Ar 16.37089 17.55884 17.95178
Ar 17.52624 19.81057 20.88414
Ar 19.45269 16.83169 20.30236
Ar 19.14794 19.82134 16.74271
256
frame 42
Ar 0.02055 0.34075 21.22575
Ar 22.48540 3.37154 0.80808
Ar 3.28074 22.63267 3.78867
Ar 2.92636 2.67685 1.80866
Ar 0.04973 1.22898 4.35326
Ar 1.43220 3.85993 9.97471
Ar 2.23004 0.25386 7.50868
Ar 3.55006 2.63346 5.57126
Ar 0.81485 22.73371 10.48016
Ar 0.41673 3.22585 14.74561
Ar 1.85182 22.58250 13.99458
Ar 3.52722 2.50789 12.59411
Ar 22.54410 0.49519 17.29681
Ar 2.17439 4.06110 20.71558
Ar 2.93407 21.58253 19.30636
Ar 3.77394 2.26867 17.48000
Ar 22.60274 6.53097 21.78991
Ar 22.21855 7.76034 2.97940
Ar 2.80762 6.08225 1.80352
Ar 4.57617 9.50132 22.58043
Ar 0.75748 4.83072 4.73473
Ar 0.55157 7.57410 8.84137
Ar 3.51134 5.67933 7.18055
Ar 1.73703 8.31902 5.53455
Ar 0.26033 5.88261 12.70798
Ar 22.48715 9.09660 14.69876
Ar 3.27705 6.94905 14.29386
Ar 2.12679 8.71304 11.51945
Ar 1.27820 5.65427 16.74362
Ar 22.27403 8.94456 19.02612
Ar 3.42743 7.71654 19.78876
Ar 2.42145 9.45602 16.78513
Ar 1.28325 10.23467 0.52707
Ar 2.48533 13.41719 2.88598
Ar 4.35104 10.72508 3.09589
Ar 3.27416 13.65646 21.94548
Ar 0.03684 11.21408 5.08542
Ar 21.56755 14.11622 9.58304
Ar 2.47874 11.08850 9.22802
Ar 2.69521 13.90926 7.35634
Ar 22.71343 11.84522 11.99678
Ar 0.32615 14.80545 14.02503
Ar 2.55642 12.40601 14.33379
Ar 2.88107 14.65384 11.20790
Ar 22.66577 12.08204 16.92919
Ar 22.70783 15.20979 19.81373
Ar 2.15084 11.42351 19.56844
Ar 3.16742 14.65380 17.23374
Ar 0.61069 15.47768 0.45927
Ar 22.61276 20.89435 2.85217
Ar 1.57866 16.46706 3.88901
Ar 2.28598 19.66296 0.26532
Ar 22.13362 15.39025 6.47829
Ar 22.05221 21.19220 7.28556
Ar 1.86000 17.22775 8.68637
Ar 1.91326 19.64227 5.98037
Ar 21.72351 17.10086 11.26446
Ar 21.94869 19.28218 14.18532
Ar 2.99425 16.84295 14.42144
Ar 2.07729 19.49182 11.31744
Ar 21.97340 16.97435 17.17080
Ar 0.06580 19.81049 19.79267
Ar 2.91882 17.16272 19.50977
Ar 1.38317 20.17590 16.51618
Ar 5.41779 22.66971 0.64503
Ar 6.07497 3.35268 2.67099
Ar 8.47038 22.46760 3.07092
Ar 8.73108 2.74932 0.30370
Ar 5.86986 22.68483 6.28406
Ar 5.67775 2.86540 8.86928
Ar 8.71565 22.55251 8.86294
Ar 8.40130 2.20209 6.48817
Ar 5.77835 22.79844 10.68819
Ar 6.74552 2.02140 14.67901
Ar 7.82283 21.40038 14.37373
Ar 8.36379 2.64894 11.33368
Ar 6.21131 22.50441 17.87094
Ar 5.41309 2.23820 20.76979
Ar 8.64284 22.81472 20.99877
Ar 8.44257 2.76010 18.34686
Ar 5.64316 5.42847 22.19594
Ar 7.29583 7.57063 1.33887
Ar 8.40407 5.69350 4.00624
Ar 9.68199 9.28460 21.96445
Ar 5.58014 7.62706 4.90116
Ar 5.54585 8.61871 9.28208
Ar 7.93592 5.62902 8.95476
Ar 8.79560 8.47680 7.04124
Ar 4.43990 5.47414 11.03382
Ar 5.53967 9.60851 13.15857
Ar 7.31139 6.22860 12.75167
Ar 8.67510 9.27522 11.47910
Ar 6.14565 5.52144 17.70857
Ar 7.05741 8.04584 19.85258
Ar 9.15970 5.47976 20.04179
Ar 7.96349 8.43123 15.38413
Ar 6.93146 11.94116 0.26383
Ar 5.54406 14.10198 4.41639
Ar 7.90417 10.88952 4.30160
Ar 9.36706 13.92212 2.17847
Ar 5.83391 11.48054 6.90773
Ar 6.42396 14.93995 8.48301
Ar 10.84223 13.40604 9.06696
Ar 9.16678 14.68780 6.07014
Ar 6.55564 11.96790 10.45825
Ar 5.96103 14.78160 13.47228
Ar 8.46026 12.13771 13.91439
Ar 8.78103 16.03882 11.23734
Ar 5.32006 11.47523 16.28561
Ar 6.43593 14.66100 20.61280
Ar 7.96108 11.48440 18.68688
Ar 8.17553 14.91534 16.63504
Ar 4.93336 16.07090 0.95132
Ar 4.81192 19.12886 3.55643
Ar 7.83317 17.24669 3.76902
Ar 8.33601 19.61777 0.82370
Ar 4.49830 16.89547 6.43882
Ar 5.31805 20.01372 8.85615
Ar 9.06777 17.80716 8.09949
Ar 8.69154 20.42402 5.78517
Ar 5.75617 17.37245 10.95518
Ar 4.46299 20.38046 14.39227
Ar 8.48627 17.69986 14.55141
Ar 8.42131 19.49586 11.15820
Ar 5.58704 17.29773 17.50546
Ar 5.95794 18.90928 20.59967
Ar 9.37371 17.19683 19.67139
Ar 8.12477 19.90259 17.75981
Ar 11.57044 0.50682 0.42444
Ar 10.79229 2.80925 3.31137
Ar 14.32133 22.51286 2.95028
Ar 13.71029 3.63828 1.40970
Ar 11.43094 22.59080 5.59323
Ar 11.39445 2.13183 8.48324
Ar 14.26249 0.37330 8.42068
Ar 14.18210 3.44347 5.23339
Ar 11.69467 0.16617 11.34565
Ar 11.31266 2.62848 13.94001
Ar 14.88672 0.74488 14.31112
Ar 14.04263 2.62595 11.37106
Ar 11.31660 22.31386 16.60452
Ar 11.66706 2.58296 20.03003
Ar 13.39356 22.39280 20.13200
Ar 14.09156 2.73656 17.34166
Ar 10.53711 5.90957 0.57804
Ar 10.61775 9.20737 3.14654
Ar 13.42794 6.23500 3.36466
Ar 13.38783 8.65658 22.55785
Ar 10.87079 5.69895 7.09248
Ar 11.13696 9.72789 8.79772
Ar 14.05703 4.51515 8.81857
Ar 13.70794 8.27786 6.65863
Ar 11.11978 5.37499 11.35799
Ar 11.78774 8.32370 13.73015
Ar 14.06259 4.73354 14.19632
Ar 14.45627 7.20724 11.83538
Ar 11.09908 5.42073 16.89376
Ar 11.85984 8.61813 19.03252
Ar 13.53321 5.52130 19.71945
Ar 14.58608 7.60824 16.48077
Ar 12.65066 11.69300 0.74310
Ar 13.43935 14.25547 3.36720
Ar 14.84468 10.97604 3.30710
Ar 13.45360 14.83963 21.29077
Ar 11.72191 11.94647 5.37736
Ar 12.65840 16.59301 7.53596
Ar 13.91521 11.71280 8.92973
Ar 15.24191 14.43538 6.29248
Ar 11.93676 11.55213 11.96427
Ar 11.29170 14.66845 13.72370
Ar 14.93170 10.35883 13.53016
Ar 13.52075 14.77520 10.52593
Ar 11.88134 11.55558 16.00457
Ar 10.13524 13.80673 20.03840
Ar 13.02976 11.61110 20.03347
Ar 13.25428 15.09875 17.29186
Ar 11.35050 16.44547 1.19637
Ar 11.53798 20.13875 2.52766
Ar 15.22878 17.22636 3.36470
Ar 14.66621 19.64876 0.47507
Ar 10.97353 17.48135 4.70948
Ar 11.75069 20.38794 8.41965
Ar 15.73523 17.75764 8.69610
Ar 14.43388 20.21838 5.64387
Ar 11.79501 17.76874 11.03995
Ar 11.19095 20.28298 13.56985
Ar 13.79375 17.10247 14.50942
Ar 14.35085 20.21011 11.81882
Ar 11.38512 18.27246 17.17599
Ar 11.06890 20.01906 21.72290
Ar 13.80119 18.46283 20.40453
Ar 14.48407 20.28097 15.35837
Ar 17.10513 22.43025 0.42507
Ar 16.79771 2.86463 2.39728
Ar 20.32996 0.74935 1.40916
Ar 18.77539 3.05781 21.00177
Ar 18.58674 1.20002 4.57647
Ar 17.63537 3.43355 7.32952
Ar 21.80106 1.90455 7.69209
Ar 20.01394 4.47434 5.07167
Ar 17.01874 0.34106 11.35593
Ar 17.69234 4.15429 14.41101
Ar 20.79569 22.81110 14.27844
Ar 20.40603 3.40212 11.66871
Ar 16.11543 22.38473 17.91854
Ar 15.24803 2.31731 21.02291
Ar 19.69463 22.30209 19.19271
Ar 19.33999 2.20840 16.88644
Ar 16.31274 5.88764 22.34220
Ar 17.95058 8.56950 2.31756
Ar 19.51906 5.51244 1.02343
Ar 19.44907 7.79432 20.88922
Ar 17.14483 6.16033 4.52964
Ar 16.83116 7.48470 8.23702
Ar 20.52750 5.79680 8.91312
Ar 19.33141 8.67970 5.68725
Ar 17.04883 4.49544 10.72060
Ar 17.43088 7.61300 13.79179
Ar 20.57032 5.94084 15.56317
Ar 20.33596 7.84796 11.89845
Ar 17.19034 5.01000 18.02178
Ar 16.02910 8.58960 20.11792
Ar 21.85053 3.44627 18.97294
Ar 18.75585 8.29540 17.24199
Ar 16.05586 12.54114 22.62876
Ar 17.60132 13.69237 2.67951
Ar 20.65253 11.23821 2.43071
Ar 20.34387 13.56852 22.79436
Ar 16.70847 11.01636 6.33324
Ar 18.20985 12.85456 9.26338
Ar 20.29570 10.03536 8.73617
Ar 19.59695 12.67991 5.76878
Ar 17.09572 9.81793 10.97755
Ar 16.36749 13.70337 13.79140
Ar 19.58349 10.71862 14.21091
Ar 19.54260 13.91439 12.43142
Ar 16.54719 11.49475 16.77253
Ar 16.61700 14.40184 19.75988
Ar 18.81305 11.18561 19.83193
Ar 19.73348 13.64603 17.09817
Ar 16.71706 16.63926 0.19467
Ar 17.19678 20.51888 3.45607
Ar 21.03882 15.41833 3.15387
Ar 20.38123 18.59345 0.47345
Ar 18.50077 16.21673 5.51051
Ar 18.21068 21.76844 7.19153
Ar 19.09755 17.42668 9.29087
Ar 21.31635 18.53153 4.98238
Ar 16.36691 17.09380 11.81186
Ar 17.74420 20.17713 13.39879
Ar 17.89030 16.45662 15.23018
Ar 20.38252 20.60389 11.31605
Ar 16.27254 17.61389 17.96245
Ar 17.52486 19.70057 21.04621
Ar 19.48843 16.81802 20.27574
Ar 19.08733 19.90011 16.76659
256
frame 43
Ar 0.10005 0.34956 21.14228
Ar 22.50521 3.45288 0.78121
Ar 3.33116 22.58987 3.80724
Ar 2.83981 2.70396 1.88173
Ar 0.02077 1.23069 4.38805
Ar 1.44920 3.80871 10.02575
Ar 2.19340 0.19031 7.39690
Ar 3.55341 2.71595 5.50203
Ar 0.90169 22.71229 10.49813
Ar 0.43559 3.11607 14.80829
Ar 1.76643 22.62011 14.08965
Ar 3.51800 2.43912 12.54955
Ar 22.57156 0.52178 17.26316
Ar 2.06473 4.07169 20.68446
Ar 3.03029 21.56600 19.25763
Ar 3.66505 2.22829 17.48805
Ar 22.73634 6.55660 21.80472
Ar 22.34657 7.77125 2.95093
Ar 2.81330 6.13670 1.75400
Ar 4.62523 9.48069 22.39880
Ar 0.81571 4.88348 4.60866
Ar 0.77161 7.55590 8.84562
Ar 3.54376 5.81404 7.12253
Ar 1.73964 8.36249 5.53565
Ar 0.27437 5.83577 12.76423
Ar 22.55831 8.96444 14.63088
Ar 3.42979 7.05173 14.33328
Ar 2.15553 8.76860 11.62219
Ar 1.32893 5.64926 16.79314
Ar 22.21149 8.92711 18.95911
Ar 3.36246 7.82212 19.74753
Ar 2.35887 9.55324 16.69443
Ar 1.26075 10.08854 0.50927
Ar 2.47970 13.54600 2.90403
Ar 4.36695 10.71614 3.02113
Ar 3.27262 13.70852 22.05267
Ar 0.11607 11.26192 5.16841
Ar 21.57943 14.01715 9.58989
Ar 2.39620 11.04976 9.11520
Ar 2.80324 13.99855 7.34405
Ar 22.73289 11.73962 11.96010
Ar 0.34194 14.90503 14.04937
Ar 2.54673 12.38032 14.28694
Ar 2.89847 14.67448 11.29975
Ar 22.61541 12.13451 16.93318
Ar 22.68331 15.18120 19.80048
Ar 2.07065 11.57873 19.65194
Ar 3.17043 14.57390 17.21587
Ar 0.61813 15.48310 0.52335
Ar 22.71341 20.91844 2.98164
Ar 1.40538 16.51337 4.07127
Ar 2.20556 19.64160 0.32514
Ar 22.19407 15.36233 6.54999
Ar 22.13524 21.21856 7.34392
Ar 1.91078 17.23131 8.57634
Ar 1.97856 19.64772 6.11344
Ar 21.67532 17.09399 11.30149
Ar 21.91784 19.20430 14.29994
Ar 2.96902 16.93828 14.48383
Ar 2.08445 19.46840 11.27934
Ar 21.95679 16.92009 17.22560
Ar 0.07535 19.81982 19.72445
Ar 2.85856 17.19654 19.54997
Ar 1.30900 20.11884 16.53163
Ar 5.46550 22.65733 0.71071
Ar 6.10684 3.30089 2.51626
Ar 8.39243 22.52244 2.93500
Ar 8.77445 2.69127 0.29510
Ar 5.90259 22.67628 6.32936
Ar 5.66177 2.85362 8.71543
Ar 8.67202 22.54030 8.85541
Ar 8.34826 2.24884 6.32446
Ar 5.79645 22.74565 10.68201
Ar 6.82537 2.02428 14.71980
Ar 7.90064 21.44483 14.36847
Ar 8.32441 2.54680 11.32431
Ar 6.20371 22.52487 17.84889
Ar 5.42395 2.35546 20.73558
Ar 8.72431 22.64725 20.97755
Ar 8.54329 2.63265 18.30177
Ar 5.74876 5.35877 22.14955
Ar 7.33841 7.58417 1.36337
Ar 8.43052 5.62510 4.04091
Ar 9.64713 9.47006 21.93940
Ar 5.57767 7.64616 4.92627
Ar 5.48625 8.61363 9.26370
Ar 7.81996 5.72994 8.97125
Ar 8.72674 8.47982 7.06884
Ar 4.37605 5.36287 11.07145
Ar 5.45836 9.57517 13.03359
Ar 7.21696 6.17615 12.84879
Ar 8.66090 9.34544 11.53886
Ar 6.12817 5.44420 17.68743
Ar 7.09067 7.98008 19.96784
Ar 9.28021 5.46599 20.15244
Ar 7.94232 8.41996 15.35126
Ar 6.98545 12.02946 0.31245
Ar 5.49089 14.08835 4.40247
Ar 7.98141 11.00399 4.26397
Ar 9.36202 13.77367 2.13614
Ar 5.80105 11.49644 6.85999
Ar 6.47863 14.88355 8.50088
Ar 10.77287 13.29351 8.91390
Ar 9.09302 14.71640 6.11428
Ar 6.62938 12.13717 10.58303
Ar 5.81662 14.75279 13.52274
Ar 8.37711 12.00325 13.91998
Ar 8.82070 16.05447 11.16035
Ar 5.32695 11.65900 16.40400
Ar 6.45905 14.74242 20.58559
Ar 8.03679 11.42632 18.67391
Ar 8.17298 14.93457 16.64856
Ar 4.84006 16.07461 0.98937
Ar 4.87248 19.08622 3.57039
Ar 7.78137 17.20965 3.73145
Ar 8.35397 19.55637 0.75681
Ar 4.41606 16.88525 6.35451
Ar 5.37524 19.96326 8.84187
Ar 9.18035 17.70389 8.02431
Ar 8.64299 20.39387 5.79095
Ar 5.61997 17.38561 10.84820
Ar 4.51114 20.43166 14.30340
Ar 8.47131 17.64445 14.55750
Ar 8.42315 19.54151 11.21557
Ar 5.67066 17.20629 17.53423
Ar 5.95895 18.77213 20.56183
Ar 9.33228 17.25454 19.75021
Ar 8.17143 19.81108 17.77699
Ar 11.52574 0.52751 0.41083
Ar 10.80608 2.84080 3.37472
Ar 14.32503 22.61161 3.02600
Ar 13.68723 3.64801 1.42100
Ar 11.39347 22.53429 5.57963
Ar 11.37675 2.19091 8.52138
Ar 14.27966 0.40912 8.47830
Ar 14.20137 3.52779 5.32285
Ar 11.78429 0.15720 11.30919
Ar 11.33090 2.52590 13.96976
Ar 14.88773 0.80169 14.20314
Ar 13.90638 2.67266 11.40846
Ar 11.26658 22.35083 16.61214
Ar 11.60406 2.53548 20.01691
Ar 13.36523 22.26018 20.03619
Ar 14.10325 2.76962 17.34707
Ar 10.53188 6.01552 0.62199
Ar 10.59593 9.24991 3.04095
Ar 13.27980 6.30511 3.49604
Ar 13.43115 8.56110 22.56385
Ar 10.91782 5.80924 7.13385
Ar 11.06521 9.79090 8.84232
Ar 14.05657 4.55540 8.65960
Ar 13.74698 8.34771 6.64170
Ar 11.03721 5.30062 11.27537
Ar 11.79035 8.45894 13.72752
Ar 14.09325 4.75542 14.23492
Ar 14.29950 7.31474 11.81466
Ar 11.11900 5.41463 16.86984
Ar 11.87109 8.54989 19.04897
Ar 13.55904 5.41379 19.64001
Ar 14.49535 7.55850 16.46333
Ar 12.68057 11.84018 0.82485
Ar 13.49960 14.20277 3.38349
Ar 14.87930 10.99991 3.31600
Ar 13.49635 14.86298 21.28364
Ar 11.81630 11.90383 5.30735
Ar 12.58256 16.61728 7.57037
Ar 13.92511 11.75683 8.91276
Ar 15.25043 14.30762 6.39228
Ar 11.93544 11.54010 12.05523
Ar 11.31367 14.71097 13.75286
Ar 15.04054 10.31839 13.61405
Ar 13.52866 14.81986 10.55053
Ar 11.77855 11.56538 15.95441
Ar 10.00773 13.75097 20.05190
Ar 13.08760 11.61882 20.00434
Ar 13.23295 15.14937 17.31632
Ar 11.41149 16.41500 1.12735
Ar 11.52621 20.13928 2.45036
Ar 15.05690 17.16536 3.29014
Ar 14.73488 19.59389 0.49584
Ar 10.87193 17.59945 4.82687
Ar 11.65551 20.47492 8.36188
Ar 15.68490 17.70244 8.65761
Ar 14.49791 20.18301 5.69478
Ar 11.84768 17.78167 11.14250
Ar 11.08981 20.24961 13.57027
Ar 13.90914 17.11714 14.50182
Ar 14.31281 20.20605 11.84927
Ar 11.38891 18.27828 17.06350
Ar 11.17998 20.00123 21.68424
Ar 13.90291 18.36119 20.39311
Ar 14.57160 20.16944 15.38958
Ar 17.10552 22.36801 0.38619
Ar 16.70729 2.90034 2.37551
Ar 20.38850 0.78574 1.45306
Ar 18.72000 3.23577 21.04264
Ar 18.71065 1.26146 4.60534
Ar 17.62800 3.41806 7.29234
Ar 21.80676 1.87391 7.77049
Ar 19.94795 4.49336 5.07777
Ar 17.00364 0.34429 11.23416
Ar 17.56563 4.12317 14.38590
Ar 20.85569 0.04209 14.37801
Ar 20.37327 3.42515 11.79406
Ar 16.09508 22.32539 17.86911
Ar 15.21358 2.33320 21.05792
Ar 19.64259 22.27608 19.19992
Ar 19.41873 2.14287 16.90629
Ar 16.28222 5.97266 22.31438
Ar 18.04834 8.58746 2.26690
Ar 19.60438 5.58566 1.08031
Ar 19.37798 7.80160 20.80095
Ar 17.07911 6.22178 4.57239
Ar 16.90039 7.50210 8.26498
Ar 20.53003 5.94757 8.83484
Ar 19.25966 8.65645 5.73635
Ar 17.06680 4.47168 10.71334
Ar 17.44832 7.59269 13.75601
Ar 20.58133 5.85256 15.55399
Ar 20.35365 7.78245 11.87092
Ar 17.15908 5.05275 18.00407
Ar 15.96542 8.78374 20.15311
Ar 21.85631 3.53412 18.97907
Ar 18.82782 8.31699 17.23246
Ar 16.17640 12.60508 22.65751
Ar 17.61974 13.73763 2.68929
Ar 20.67864 11.18739 2.31115
Ar 20.34679 13.57925 22.78655
Ar 16.66402 11.06023 6.29805
Ar 18.24224 12.79409 9.30182
Ar 20.34219 10.02922 8.82432
Ar 19.65709 12.57087 5.68151
Ar 17.00379 9.77765 10.94672
Ar 16.38092 13.69761 13.73175
Ar 19.51375 10.68542 14.28328
Ar 19.57271 13.92583 12.32296
Ar 16.57769 11.49120 16.76904
Ar 16.64944 14.33247 19.74306
Ar 18.78396 11.13837 19.95921
Ar 19.76356 13.70631 17.20505
Ar 16.66929 16.63208 0.14945
Ar 17.16123 20.55277 3.42247
Ar 20.97336 15.37564 3.16188
Ar 20.45877 18.48426 0.47859
Ar 18.43631 16.05745 5.48254
Ar 18.16548 21.78330 7.13279
Ar 19.07045 17.44252 9.18668
Ar 21.33104 18.48498 4.91632
Ar 16.48711 17.07946 11.86356
Ar 17.66014 20.05223 13.50832
Ar 17.86114 16.43846 15.25682
Ar 20.44531 20.63416 11.32094
Ar 16.16180 17.68393 17.99065
Ar 17.52183 19.59289 21.18885
Ar 19.52324 16.79398 20.23658
Ar 19.02867 19.96349 16.78287
256
frame 44
Ar 0.17872 0.37002 21.06362
Ar 22.51863 3.54470 0.74889
Ar 3.37878 22.50403 3.81019
Ar 2.74095 2.70229 1.94216
Ar 22.81253 1.25715 4.42488
Ar 1.44144 3.74816 10.04902
Ar 2.20012 0.13501 7.27251
Ar 3.57768 2.82487 5.42984
Ar 0.96860 22.70414 10.54704
Ar 0.43948 2.95873 14.85956
Ar 1.66848 22.65700 14.18165
Ar 3.51749 2.34701 12.52317
Ar 22.63528 0.53343 17.26066
Ar 1.98611 4.07041 20.65405
Ar 3.14702 21.56383 19.22255
Ar 3.54155 2.19653 17.48724
Ar 0.04063 6.60459 21.82666
Ar 22.44804 7.78510 2.89981
Ar 2.82313 6.22283 1.69829
Ar 4.68920 9.46533 22.23511
Ar 0.87021 4.92710 4.48670
Ar 0.98361 7.52950 8.83096
Ar 3.58269 5.93904 7.09805
Ar 1.77827 8.39434 5.53667
Ar 0.30117 5.79901 12.80781
Ar 22.62267 8.82275 14.55337
Ar 3.59685 7.12737 14.38590
Ar 2.19348 8.83075 11.76596
Ar 1.38522 5.67728 16.88489
Ar 22.15879 8.91211 18.88105
Ar 3.27696 7.90044 19.68236
Ar 2.32054 9.64689 16.61521
Ar 1.22676 9.94791 0.49395
Ar 2.44204 13.65529 2.90533
Ar 4.39868 10.67906 2.95302
Ar 3.27434 13.72832 22.14580
Ar 0.19150 11.34657 5.25302
Ar 21.61338 13.90629 9.57834
Ar 2.31570 11.01556 8.98800
Ar 2.90659 14.07479 7.31966
Ar 22.74548 11.61762 11.92977
Ar 0.29233 15.01036 14.07162
Ar 2.56586 12.32475 14.23548
Ar 2.91032 14.69292 11.37993
Ar 22.60908 12.16710 16.92117
Ar 22.68376 15.08568 19.85227
Ar 1.98908 11.72173 19.73310
Ar 3.16358 14.47404 17.19773
Ar 0.61359 15.51568 0.58867
Ar 0.00164 20.94089 3.08642
Ar 1.26424 16.60505 4.24463
Ar 2.12946 19.61695 0.38079
Ar 22.24270 15.32913 6.62389
Ar 22.15313 21.23427 7.41763
Ar 1.92923 17.22240 8.50358
Ar 2.08135 19.64802 6.20764
Ar 21.66221 17.09121 11.36480
Ar 21.85117 19.10996 14.37917
Ar 2.97132 17.06926 14.54608
Ar 2.09840 19.44163 11.26186
Ar 21.92124 16.91452 17.20669
Ar 0.04833 19.80639 19.68202
Ar 2.77545 17.24396 19.61533
Ar 1.28145 20.05475 16.56181
Ar 5.51176 22.64269 0.77161
Ar 6.15654 3.25080 2.37865
Ar 8.32070 22.59416 2.79704
Ar 8.80914 2.65148 0.27395
Ar 5.91416 22.65328 6.37757
Ar 5.63036 2.84381 8.55263
Ar 8.64844 22.51778 8.84232
Ar 8.31788 2.32387 6.14367
Ar 5.78997 22.70799 10.72499
Ar 6.89907 2.03866 14.76574
Ar 7.97922 21.49558 14.36828
Ar 8.29454 2.45049 11.31478
Ar 6.18595 22.57404 17.82396
Ar 5.43911 2.42923 20.68310
Ar 8.79473 22.47168 20.94326
Ar 8.62616 2.48281 18.23411
Ar 5.84177 5.30830 22.10471
Ar 7.38092 7.63282 1.39723
Ar 8.47813 5.55014 4.09429
Ar 9.62519 9.66617 21.92174
Ar 5.57869 7.68165 4.94314
Ar 5.42132 8.60806 9.24765
Ar 7.69651 5.81526 9.00777
Ar 8.58482 8.48704 7.03377
Ar 4.31521 5.29405 11.08708
Ar 5.36905 9.56396 12.90452
Ar 7.13692 6.10497 12.93851
Ar 8.66538 9.39625 11.58878
Ar 6.10171 5.35714 17.65746
Ar 7.09719 7.95707 20.07975
Ar 9.42869 5.44098 20.27335
Ar 7.93542 8.42423 15.34842
Ar 7.03002 12.11326 0.35450
Ar 5.47207 14.08165 4.38887
Ar 8.04732 11.13192 4.21795
Ar 9.36597 13.62434 2.11622
Ar 5.74929 11.50707 6.83823
Ar 6.52782 14.83159 8.50713
Ar 10.67502 13.20090 8.76287
Ar 9.02079 14.72356 6.13341
Ar 6.69675 12.30064 10.71677
Ar 5.67949 14.71954 13.58078
Ar 8.29885 11.87795 13.93769
Ar 8.86721 16.02245 11.09625
Ar 5.34322 11.84270 16.51670
Ar 6.48268 14.83069 20.54748
Ar 8.10006 11.33781 18.65174
Ar 8.18487 14.91634 16.67619
Ar 4.76676 16.11297 1.05513
Ar 4.91504 19.06537 3.57263
Ar 7.69586 17.15374 3.67498
Ar 8.34114 19.48650 0.69788
Ar 4.37220 16.89859 6.24757
Ar 5.42099 19.92414 8.76428
Ar 9.27613 17.60713 7.96502
Ar 8.58099 20.35045 5.79602
Ar 5.44861 17.36356 10.78481
Ar 4.56180 20.46804 14.21465
Ar 8.45665 17.60811 14.54888
Ar 8.42832 19.61470 11.26583
Ar 5.75794 17.11434 17.52337
Ar 5.96399 18.65398 20.55857
Ar 9.29011 17.29580 19.85632
Ar 8.23944 19.71678 17.77718
Ar 11.50222 0.54071 0.40606
Ar 10.81670 2.86876 3.44943
Ar 14.31549 22.73339 3.09267
Ar 13.61052 3.64814 1.38218
Ar 11.36813 22.50438 5.54710
Ar 11.32521 2.27765 8.54503
Ar 14.32758 0.42812 8.52710
Ar 14.22681 3.58159 5.40493
Ar 11.83751 0.09247 11.27665
Ar 11.33050 2.41987 14.01525
Ar 14.88944 0.85386 14.11086
Ar 13.80049 2.73647 11.45898
Ar 11.21769 22.39116 16.62548
Ar 11.53229 2.48131 20.01900
Ar 13.33070 22.11349 19.94229
Ar 14.11843 2.78892 17.34190
Ar 10.54147 6.12003 0.67881
Ar 10.60260 9.26637 2.91608
Ar 13.11774 6.42317 3.63261
Ar 13.46302 8.44638 22.58015
Ar 10.98577 5.89963 7.16641
Ar 11.04151 9.85563 8.92685
Ar 14.06511 4.64110 8.47998
Ar 13.78397 8.42238 6.62019
Ar 10.95502 5.22731 11.18991
Ar 11.75600 8.58469 13.75863
Ar 14.11729 4.78432 14.28709
Ar 14.16862 7.40517 11.74713
Ar 11.13878 5.40618 16.83787
Ar 11.86657 8.46454 19.05419
Ar 13.59980 5.33051 19.57572
Ar 14.41047 7.51758 16.45077
Ar 12.67483 12.00367 0.89033
Ar 13.53761 14.15587 3.37687
Ar 14.93185 10.99414 3.32451
Ar 13.52948 14.89910 21.28897
Ar 11.89663 11.84701 5.26131
Ar 12.50657 16.62592 7.61726
Ar 13.97725 11.78548 8.88367
Ar 15.26456 14.19110 6.50861
Ar 11.92903 11.54029 12.13899
Ar 11.32548 14.75729 13.78518
Ar 15.12454 10.29016 13.73589
Ar 13.56416 14.86408 10.59743
Ar 11.67676 11.57536 15.90858
Ar 9.91108 13.71444 20.08529
Ar 13.16027 11.63230 19.96909
Ar 13.21205 15.17989 17.36048
Ar 11.48311 16.40931 1.05221
Ar 11.52154 20.14982 2.38139
Ar 14.89826 17.14146 3.23109
Ar 14.78973 19.57249 0.58018
Ar 10.81742 17.72774 4.92776
Ar 11.56823 20.54368 8.32311
Ar 15.61474 17.66488 8.58132
Ar 14.54587 20.13764 5.76538
Ar 11.89889 17.80287 11.23747
Ar 11.00544 20.20968 13.58884
Ar 14.02023 17.08191 14.45938
Ar 14.28870 20.21514 11.86189
Ar 11.40673 18.29530 16.93656
Ar 11.28579 19.98107 21.63755
Ar 13.98185 18.23744 20.34432
Ar 14.65998 20.11236 15.45785
Ar 17.10088 22.33994 0.34312
Ar 16.66616 2.93895 2.35027
Ar 20.44084 0.80822 1.49191
Ar 18.67360 3.41152 21.08552
Ar 18.84981 1.29896 4.63642
Ar 17.59313 3.39537 7.27889
Ar 21.79654 1.87019 7.85879
Ar 19.94265 4.52565 5.06631
Ar 16.99351 0.34847 11.10769
Ar 17.44532 4.07014 14.35956
Ar 20.89714 0.08658 14.44095
Ar 20.35003 3.44422 11.92396
Ar 16.09448 22.27187 17.81314
Ar 15.18275 2.35337 21.09696
Ar 19.59590 22.26098 19.24714
Ar 19.46895 2.09082 16.91489
Ar 16.24842 6.04428 22.29503
Ar 18.14117 8.63101 2.19453
Ar 19.69117 5.65184 1.14423
Ar 19.30376 7.78002 20.73192
Ar 16.95817 6.26437 4.62007
Ar 16.97211 7.50231 8.28956
Ar 20.50869 6.07814 8.74172
Ar 19.21844 8.63709 5.77712
Ar 17.08538 4.45957 10.71471
Ar 17.45307 7.56844 13.74130
Ar 20.60347 5.74734 15.53650
Ar 20.37145 7.73305 11.83595
Ar 17.12452 5.09770 17.99202
Ar 15.89697 8.98815 20.15987
Ar 21.85909 3.64145 18.99519
Ar 18.88529 8.36068 17.22731
Ar 16.28394 12.63973 22.68239
Ar 17.64332 13.79081 2.72681
Ar 20.70693 11.11424 2.21253
Ar 20.33672 13.61608 22.74216
Ar 16.60135 11.07988 6.28839
Ar 18.24287 12.74675 9.32069
Ar 20.40557 10.01630 8.92083
Ar 19.73495 12.47632 5.59547
Ar 16.93697 9.74666 10.88996
Ar 16.36667 13.68090 13.66667
Ar 19.42795 10.66545 14.35422
Ar 19.60767 13.94977 12.25391
Ar 16.60846 11.48550 16.77518
Ar 16.69616 14.27449 19.69260
Ar 18.75854 11.11473 20.08157
Ar 19.73636 13.79868 17.31732
Ar 16.63132 16.59668 0.09620
Ar 17.15420 20.57074 3.39197
Ar 20.90287 15.31512 3.14899
Ar 20.54245 18.37632 0.49549
Ar 18.35740 15.91011 5.47151
Ar 18.11479 21.78255 7.09292
Ar 19.04621 17.45734 9.05849
Ar 21.32090 18.43636 4.87026
Ar 16.61374 17.04559 11.94559
Ar 17.57676 19.93397 13.61634
Ar 17.85712 16.43143 15.27657
Ar 20.51400 20.67254 11.30576
Ar 16.06684 17.75698 18.00693
Ar 17.52921 19.48914 21.29685
Ar 19.55193 16.76113 20.18592
Ar 18.97264 20.00344 16.78979
256
frame 45
Ar 0.25644 0.40171 20.99041
Ar 22.51735 3.63893 0.71013
Ar 3.42297 22.39664 3.80277
Ar 2.65104 2.67765 1.99436
Ar 22.78025 1.31258 4.46641
Ar 1.40326 3.67815 10.04298
Ar 2.25005 0.11083 7.15174
Ar 3.62106 2.93748 5.35930
Ar 1.02432 22.71208 10.60893
Ar 0.43181 2.82005 14.90267
Ar 1.58178 22.66513 14.26353
Ar 3.52624 2.22797 12.51832
Ar 22.73142 0.52597 17.31634
Ar 1.95766 4.05069 20.62573
Ar 3.26298 21.56433 19.20361
Ar 3.40481 2.17270 17.47836
Ar 0.15213 6.68721 21.85274
Ar 22.51655 7.80345 2.82986
Ar 2.84293 6.32924 1.63359
Ar 4.76635 9.47349 22.11294
Ar 0.91669 4.95815 4.37453
Ar 1.17332 7.49632 8.82444
Ar 3.63618 6.02940 7.10949
Ar 1.84405 8.42592 5.52762
Ar 0.34845 5.75669 12.84086
Ar 22.66051 8.68520 14.47352
Ar 3.76296 7.15496 14.46848
Ar 2.21899 8.89630 11.91107
Ar 1.44382 5.72145 16.99329
Ar 22.12036 8.89973 18.79624
Ar 3.16632 7.94654 19.58411
Ar 2.31343 9.74000 16.56214
Ar 1.19434 9.81779 0.47404
Ar 2.38237 13.73671 2.90485
Ar 4.43586 10.63038 2.88738
Ar 3.28379 13.71309 22.22094
Ar 0.26968 11.46309 5.33527
Ar 21.67273 13.78602 9.55278
Ar 2.23539 10.98219 8.85376
Ar 2.99888 14.11304 7.29282
Ar 22.74642 11.48679 11.90901
Ar 0.20391 15.10563 14.09479
Ar 2.60049 12.25862 14.17627
Ar 2.90681 14.70880 11.44118
Ar 22.63117 12.18765 16.89242
Ar 22.70234 14.94375 19.94107
Ar 1.90184 11.84160 19.79990
Ar 3.13668 14.38271 17.18638
Ar 0.59225 15.58076 0.64879
Ar 0.12240 20.95621 3.17022
Ar 1.19223 16.72478 4.37362
Ar 2.05857 19.58742 0.43062
Ar 22.25845 15.28239 6.70441
Ar 22.10848 21.22523 7.50062
Ar 1.91141 17.19621 8.49056
Ar 2.20783 19.65831 6.25423
Ar 21.66691 17.08811 11.43273
Ar 21.74579 19.00776 14.41663
Ar 2.99219 17.22385 14.61003
Ar 2.11832 19.40845 11.26246
Ar 21.87570 16.93482 17.15006
Ar 22.81266 19.77884 19.67585
Ar 2.68418 17.29471 19.68778
Ar 1.30808 19.98973 16.59563
Ar 5.54183 22.62687 0.81278
Ar 6.20355 3.20372 2.26436
Ar 8.27215 22.67270 2.67623
Ar 8.83852 2.63227 0.23111
Ar 5.90514 22.62362 6.42376
Ar 5.58821 2.83405 8.39469
Ar 8.64060 22.49620 8.81912
Ar 8.30488 2.41271 5.95721
Ar 5.75741 22.68065 10.80435
Ar 6.96521 2.06740 14.81539
Ar 8.04097 21.55728 14.38077
Ar 8.27388 2.36406 11.30514
Ar 6.17947 22.63196 17.79118
Ar 5.45296 2.43375 20.60057
Ar 8.85001 22.29750 20.89780
Ar 8.68610 2.33034 18.14763
Ar 5.92952 5.30557 22.08412
Ar 7.41565 7.70756 1.43806
Ar 8.53463 5.48010 4.15903
Ar 9.61835 9.86933 21.91091
Ar 5.59184 7.73573 4.94115
Ar 5.34755 8.60811 9.23403
Ar 7.57327 5.87623 9.06280
Ar 8.41375 8.51435 6.96075
Ar 4.26624 5.27344 11.08163
Ar 5.30593 9.59147 12.77415
Ar 7.07015 6.01754 13.01845
Ar 8.68351 9.41490 11.62092
Ar 6.07114 5.26513 17.62548
Ar 7.09333 7.95584 20.17361
Ar 9.58568 5.40408 20.38317
Ar 7.93779 8.44407 15.37156
Ar 7.03418 12.17576 0.37023
Ar 5.48922 14.07892 4.37340
Ar 8.09561 11.26010 4.17982
Ar 9.41593 13.50999 2.12341
Ar 5.68608 11.50782 6.83737
Ar 6.55769 14.80096 8.49495
Ar 10.56926 13.14460 8.62884
Ar 8.95345 14.70577 6.10202
Ar 6.75724 12.44561 10.86179
Ar 5.55941 14.68354 13.65221
Ar 8.22595 11.77741 13.98276
Ar 8.90764 15.95956 11.04779
Ar 5.37191 12.01323 16.61695
Ar 6.49826 14.92036 20.50450
Ar 8.15045 11.21217 18.61598
Ar 8.22290 14.85050 16.71299
Ar 4.71787 16.19235 1.14965
Ar 4.93068 19.08047 3.55708
Ar 7.61078 17.07233 3.60659
Ar 8.30846 19.41113 0.64260
Ar 4.38469 16.93419 6.12254
Ar 5.46055 19.90598 8.62846
Ar 9.32418 17.53885 7.95017
Ar 8.50259 20.30465 5.79492
Ar 5.26621 17.30199 10.76901
Ar 4.61049 20.49780 14.12463
Ar 8.44050 17.58934 14.52400
Ar 8.42433 19.69386 11.29700
Ar 5.82057 17.02885 17.48369
Ar 5.96944 18.55921 20.59098
Ar 9.26425 17.31127 19.98775
Ar 8.30591 19.65197 17.75408
Ar 11.50848 0.53924 0.41053
Ar 10.82916 2.88916 3.52871
Ar 14.29583 0.04538 3.15303
Ar 13.48570 3.65768 1.31237
Ar 11.35090 22.50371 5.48937
Ar 11.25122 2.37924 8.55594
Ar 14.39004 0.43870 8.56376
Ar 14.25730 3.59431 5.42608
Ar 11.85310 22.80141 11.24667
Ar 11.31287 2.31450 14.07634
Ar 14.89606 0.89043 14.04314
Ar 13.72638 2.84213 11.48353
Ar 11.16944 22.43266 16.64417
Ar 11.47426 2.41583 20.04001
Ar 13.30177 21.97716 19.84387
Ar 14.13757 2.78115 17.31971
Ar 10.56767 6.21976 0.75337
Ar 10.63099 9.26496 2.77632
Ar 12.94626 6.55807 3.76159
Ar 13.47349 8.33097 22.61334
Ar 11.05606 5.97953 7.19148
Ar 11.04185 9.88412 9.02384
Ar 14.08749 4.76479 8.35924
Ar 13.82111 8.50397 6.60099
Ar 10.87302 5.15721 11.10373
Ar 11.68548 8.68115 13.83127
Ar 14.11467 4.82069 14.33970
Ar 14.06390 7.47415 11.64099
Ar 11.15569 5.39404 16.79929
Ar 11.84915 8.37447 19.05571
Ar 13.64904 5.28020 19.53590
Ar 14.33414 7.49307 16.44784
Ar 12.63921 12.15321 0.91733
Ar 13.56023 14.12059 3.36890
Ar 14.99799 10.95479 3.31732
Ar 13.55587 14.93029 21.30363
Ar 11.95802 11.77214 5.24249
Ar 12.45051 16.60516 7.67542
Ar 14.05373 11.79804 8.85470
Ar 15.27038 14.11017 6.63184
Ar 11.92349 11.57146 12.20024
Ar 11.32646 14.80719 13.82060
Ar 15.18227 10.26926 13.88028
Ar 13.61800 14.89498 10.65704
Ar 11.57587 11.58906 15.87313
Ar 9.85400 13.70398 20.14291
Ar 13.23869 11.64733 19.92972
Ar 13.19248 15.19320 17.41970
Ar 11.55502 16.41953 0.98014
Ar 11.52321 20.16822 2.32515
Ar 14.75965 17.16686 3.18770
Ar 14.81472 19.57765 0.69803
Ar 10.80110 17.86288 4.98033
Ar 11.49570 20.58343 8.31003
Ar 15.54277 17.63977 8.49764
Ar 14.57848 20.08749 5.84861
Ar 11.93896 17.82420 11.31817
Ar 10.96147 20.16637 13.62889
Ar 14.12376 16.99563 14.38889
Ar 14.28609 20.23981 11.86462
Ar 11.43545 18.31783 16.80480
Ar 11.37404 19.94290 21.59792
Ar 14.00296 18.12259 20.33224
Ar 14.72847 20.10934 15.55615
Ar 17.09420 22.35299 0.29738
Ar 16.67725 2.97399 2.33147
Ar 20.48876 0.81804 1.52025
Ar 18.63696 3.58399 21.12878
Ar 18.99169 1.31376 4.66110
Ar 17.53546 3.36744 7.28640
Ar 21.77242 1.89151 7.95406
Ar 19.98631 4.58441 5.03963
Ar 16.98973 0.35304 10.98175
Ar 17.35110 3.99316 14.33865
Ar 20.91034 0.10961 14.45279
Ar 20.33668 3.46035 12.05701
Ar 16.11544 22.23317 17.75806
Ar 15.15267 2.36817 21.13668
Ar 19.55837 22.25737 19.33434
Ar 19.48644 2.06226 16.91768
Ar 16.21640 6.10418 22.28244
Ar 18.21791 8.68908 2.11407
Ar 19.77427 5.71054 1.21096
Ar 19.23163 7.72090 20.68725
Ar 16.79765 6.29320 4.66517
Ar 17.03834 7.47843 8.30595
Ar 20.47708 6.19138 8.63212
Ar 19.20980 8.62583 5.80844
Ar 17.09768 4.45797 10.71984
Ar 17.44625 7.53553 13.74339
Ar 20.62835 5.63036 15.51585
Ar 20.38735 7.69841 11.80114
Ar 17.08992 5.14453 17.98293
Ar 15.82615 9.19346 20.14058
Ar 21.84347 3.75878 19.00991
Ar 18.92879 8.41657 17.21808
Ar 16.37372 12.64544 22.70020
Ar 17.66475 13.84315 2.78395
Ar 20.74584 11.03056 2.13368
Ar 20.31414 13.67426 22.66759
Ar 16.54712 11.06345 6.30806
Ar 18.21070 12.71120 9.31384
Ar 20.48464 9.99704 9.01822
Ar 19.81214 12.39308 5.51530
Ar 16.88768 9.73134 10.82442
Ar 16.33196 13.65718 13.59747
Ar 19.34064 10.65602 14.41899
Ar 19.63901 13.98616 12.23852
Ar 16.64120 11.48169 16.79767
Ar 16.75033 14.23012 19.61179
Ar 18.74294 11.12360 20.19624
Ar 19.66627 13.91292 17.43577
Ar 16.60010 16.52086 0.04407
Ar 17.17027 20.57498 3.36798
Ar 20.83907 15.24075 3.12270
Ar 20.63174 18.26841 0.52211
Ar 18.26967 15.78316 5.48633
Ar 18.05794 21.76708 7.07087
Ar 19.03528 17.47015 8.91853
Ar 21.26499 18.40140 4.84969
Ar 16.73988 16.99187 12.01502
Ar 17.51356 19.83402 13.70414
Ar 17.87426 16.43217 15.30020
Ar 20.58250 20.71585 11.28175
Ar 16.03539 17.81925 17.96023
Ar 17.55652 19.39682 21.36038
Ar 19.57301 16.72159 20.12601
Ar 18.92372 20.01876 16.79368
256
frame 46
Ar 0.33362 0.44297 20.92615
Ar 22.50127 3.72671 0.66366
Ar 3.46578 22.28772 3.78569
Ar 2.58221 2.63364 2.03524
Ar 22.75081 1.39338 4.51265
Ar 1.34152 3.60162 10.01443
Ar 2.32165 0.12790 7.05128
Ar 3.68321 3.03980 5.29201
Ar 1.07377 22.73428 10.67105
Ar 0.40822 2.76499 14.93777
Ar 1.53391 22.60572 14.32302
Ar 3.54311 2.09598 12.53016
Ar 0.01533 0.49327 17.43409
Ar 1.98495 4.01391 20.60304
Ar 3.35982 21.55806 19.20505
Ar 3.25927 2.15595 17.46239
Ar 0.24270 6.79680 21.87321
Ar 22.54663 7.82148 2.75753
Ar 2.87833 6.44458 1.56047
Ar 4.83533 9.51215 22.03911
Ar 0.95221 4.97806 4.27656
Ar 1.32053 7.46517 8.85284
Ar 3.72213 6.06294 7.14665
Ar 1.92300 8.46963 5.49892
Ar 0.42004 5.69116 12.85731
Ar 22.66386 8.56959 14.41666
Ar 3.92209 7.13482 14.58452
Ar 2.21203 8.94715 12.02573
Ar 1.50158 5.77166 17.10328
Ar 22.09977 8.88937 18.71048
Ar 3.03740 7.96731 19.46596
Ar 2.33482 9.82438 16.53581
Ar 1.17937 9.71663 0.43979
Ar 2.31323 13.78827 2.91973
Ar 4.47307 10.57985 2.82247
Ar 3.30857 13.67736 22.28851
Ar 0.36414 11.60033 5.41549
Ar 21.74810 13.64910 9.53569
Ar 2.15449 10.94955 8.71912
Ar 3.07756 14.10893 7.26723
Ar 22.72704 11.35819 11.89945
Ar 0.10280 15.18422 14.12365
Ar 2.64371 12.19708 14.10504
Ar 2.87427 14.71760 11.47902
Ar 22.65496 12.21161 16.84921
Ar 22.72687 14.78482 20.03482
Ar 1.80793 11.92696 19.84549
Ar 3.06841 14.33046 17.18632
Ar 0.55687 15.67917 0.69501
Ar 0.24332 20.96086 3.24250
Ar 1.20935 16.84944 4.44292
Ar 1.99435 19.55098 0.47235
Ar 22.23882 15.22755 6.77136
Ar 22.02790 21.19254 7.58676
Ar 1.86837 17.15355 8.52966
Ar 2.34047 19.68553 6.26124
Ar 21.67775 17.08344 11.48377
Ar 21.61509 18.91891 14.41925
Ar 3.01984 17.38375 14.67405
Ar 2.14161 19.37079 11.27967
Ar 21.82970 16.95216 17.10167
Ar 22.72383 19.74563 19.70652
Ar 2.59317 17.34258 19.75998
Ar 1.37497 19.92214 16.61861
Ar 5.53175 22.60760 0.81515
Ar 6.23116 3.16251 2.18152
Ar 8.27213 22.75176 2.59245
Ar 8.86961 2.63383 0.15918
Ar 5.88202 22.60125 6.45791
Ar 5.54137 2.82605 8.25406
Ar 8.63554 22.48424 8.78897
Ar 8.29210 2.49230 5.78337
Ar 5.70545 22.65091 10.90202
Ar 7.02206 2.11379 14.86483
Ar 8.07424 21.63375 14.40988
Ar 8.26253 2.29018 11.29683
Ar 6.19373 22.68919 17.74478
Ar 5.46450 2.37799 20.49190
Ar 8.88755 22.13285 20.84257
Ar 8.72527 2.18631 18.04461
Ar 6.01195 5.33929 22.09238
Ar 7.43849 7.80199 1.48525
Ar 8.58933 5.43632 4.22422
Ar 9.62692 10.07445 21.90482
Ar 5.61463 7.80534 4.91025
Ar 5.26113 8.61975 9.22155
Ar 7.45811 5.91051 9.13167
Ar 8.24814 8.56397 6.87357
Ar 4.22581 5.29086 11.06013
Ar 5.30510 9.66423 12.65145
Ar 7.01864 5.91828 13.09147
Ar 8.70890 9.39512 11.63115
Ar 6.03839 5.17073 17.59421
Ar 7.10733 7.95886 20.23164
Ar 9.73614 5.36450 20.47100
Ar 7.94475 8.47133 15.41512
Ar 6.98361 12.21543 0.35203
Ar 5.53377 14.07361 4.35121
Ar 8.11767 11.36080 4.17155
Ar 9.53503 13.46046 2.14466
Ar 5.61767 11.49604 6.85062
Ar 6.55996 14.79697 8.46573
Ar 10.46861 13.12700 8.52042
Ar 8.89252 14.66996 6.00186
Ar 6.81099 12.57016 11.01357
Ar 5.46390 14.64763 13.74487
Ar 8.15961 11.71266 14.06815
Ar 8.94001 15.87645 11.01893
Ar 5.42940 12.14972 16.69892
Ar 6.49929 15.00170 20.46199
Ar 8.19821 11.05917 18.56935
Ar 8.29523 14.73769 16.75159
Ar 4.68633 16.30279 1.26225
Ar 4.92139 19.14242 3.51470
Ar 7.54927 16.96689 3.53250
Ar 8.26504 19.33320 0.59090
Ar 4.44733 16.97878 6.00168
Ar 5.49818 19.89055 8.46536
Ar 9.29494 17.51083 7.99156
Ar 8.40596 20.26516 5.78739
Ar 5.08839 17.22577 10.78178
Ar 4.65657 20.52759 14.03240
Ar 8.42050 17.58040 14.48674
Ar 8.40600 19.76696 11.30355
Ar 5.84469 16.96056 17.42627
Ar 5.96801 18.49050 20.64957
Ar 9.26299 17.30382 20.13882
Ar 8.36083 19.62327 17.71101
Ar 11.54596 0.51853 0.42329
Ar 10.85543 2.89788 3.60130
Ar 14.27155 0.18765 3.20871
Ar 13.33975 3.68014 1.22718
Ar 11.33633 22.52580 5.40996
Ar 11.16779 2.48328 8.55717
Ar 14.44915 0.44763 8.58276
Ar 14.28905 3.55645 5.35062
Ar 11.84200 22.66925 11.21837
Ar 11.28144 2.21239 14.14723
Ar 14.90932 0.90779 13.99950
Ar 13.66967 2.97370 11.47048
Ar 11.12182 22.47160 16.66924
Ar 11.44602 2.33725 20.07988
Ar 13.29137 21.86934 19.72922
Ar 14.16002 2.73846 17.27867
Ar 10.60762 6.30761 0.84612
Ar 10.67057 9.26423 2.63096
Ar 12.77084 6.68751 3.87782
Ar 13.46054 8.22563 22.66046
Ar 11.10906 6.06005 7.20785
Ar 11.05779 9.85712 9.11706
Ar 14.12810 4.92898 8.34047
Ar 13.86031 8.59339 6.59173
Ar 10.78929 5.09518 11.01961
Ar 11.59220 8.72881 13.93775
Ar 14.07194 4.86179 14.38104
Ar 13.97433 7.52733 11.51199
Ar 11.16749 5.37656 16.75624
Ar 11.82021 8.29008 19.05936
Ar 13.69910 5.26478 19.52564
Ar 14.26916 7.49462 16.46097
Ar 12.57870 12.26430 0.88687
Ar 13.58204 14.10728 3.38757
Ar 15.06906 10.88648 3.28124
Ar 13.57923 14.92935 21.32504
Ar 12.00020 11.67870 5.24913
Ar 12.42667 16.54431 7.73625
Ar 14.13129 11.78686 8.84512
Ar 15.26192 14.09028 6.74812
Ar 11.92333 11.64222 12.23048
Ar 11.31532 14.86001 13.85932
Ar 15.21227 10.24622 14.02378
Ar 13.68769 14.90709 10.72496
Ar 11.47560 11.61306 15.85661
Ar 9.83142 13.70874 20.21982
Ar 13.30980 11.66813 19.88607
Ar 13.17497 15.19344 17.48901
Ar 11.61951 16.44383 0.91752
Ar 11.52807 20.19343 2.28330
Ar 14.64077 17.23546 3.16539
Ar 14.81174 19.60675 0.81736
Ar 10.82187 17.99512 4.97144
Ar 11.44517 20.58810 8.31742
Ar 15.48902 17.62525 8.42344
Ar 14.59731 20.03872 5.93559
Ar 11.96102 17.83561 11.37829
Ar 10.97111 20.12282 13.69075
Ar 14.22114 16.88562 14.30846
Ar 14.31277 20.27907 11.86518
Ar 11.47713 18.33984 16.67458
Ar 11.43019 19.87433 21.58409
Ar 13.96791 18.03769 20.37815
Ar 14.74375 20.12683 15.65869
Ar 17.08693 22.40339 0.24840
Ar 16.71834 3.00881 2.31563
Ar 20.53548 0.81713 1.53260
Ar 18.61070 3.75069 21.17081
Ar 19.12786 1.30932 4.68395
Ar 17.46712 3.33694 7.30407
Ar 21.73580 1.93020 8.05127
Ar 20.05710 4.67113 5.00492
Ar 16.99816 0.35833 10.86458
Ar 17.29579 3.89209 14.32642
Ar 20.89245 0.10635 14.42116
Ar 20.33265 3.47341 12.19212
Ar 16.16365 22.22642 17.72005
Ar 15.12456 2.37276 21.17484
Ar 19.53006 22.26232 19.45326
Ar 19.47614 2.05721 16.92196
Ar 16.19078 6.15219 22.27538
Ar 18.26416 8.75042 2.03408
Ar 19.84719 5.76304 1.27881
Ar 19.16313 7.62926 20.66482
Ar 16.61739 6.31471 4.70555
Ar 17.09077 7.42582 8.31062
Ar 20.44669 6.28704 8.50739
Ar 19.23066 8.62186 5.82504
Ar 17.10243 4.46617 10.72668
Ar 17.43104 7.49053 13.75689
Ar 20.65031 5.50751 15.49647
Ar 20.39943 7.67187 11.77285
Ar 17.05839 5.19328 17.97413
Ar 15.75689 9.38419 20.10284
Ar 21.79876 3.87996 19.01583
Ar 18.95625 8.47377 17.20102
Ar 16.44451 12.62763 22.70935
Ar 17.66719 13.87647 2.83733
Ar 20.80379 10.95764 2.06638
Ar 20.27994 13.74442 22.57472
Ar 16.52376 11.00205 6.35403
Ar 18.15465 12.68876 9.28412
Ar 20.57540 9.97772 9.10938
Ar 19.87019 12.31947 5.44396
Ar 16.84654 9.73624 10.77155
Ar 16.28321 13.63043 13.52670
Ar 19.26029 10.65803 14.46967
Ar 19.66445 14.03248 12.26960
Ar 16.67730 11.48561 16.84632
Ar 16.79840 14.19917 19.51411
Ar 18.74590 11.16113 20.30253
Ar 19.58257 14.03165 17.55396
Ar 16.57083 16.40388 0.00104
Ar 17.20292 20.57060 3.35374
Ar 20.79678 15.16219 3.09396
Ar 20.72406 18.16069 0.55510
Ar 18.18325 15.68856 5.54060
Ar 17.99503 21.73978 7.06382
Ar 19.04054 17.48083 8.77520
Ar 21.14224 18.39581 4.85321
Ar 16.86478 16.91495 12.04139
Ar 17.48269 19.76098 13.75679
Ar 17.91298 16.43250 15.33144
Ar 20.64924 20.76171 11.25323
Ar 16.07816 17.86685 17.84588
Ar 17.60277 19.32525 21.38301
Ar 19.58890 16.67784 20.06053
Ar 18.89049 20.01503 16.80795
256
frame 47
Ar 0.41132 0.49155 20.88436
Ar 22.48105 3.79893 0.60790
Ar 3.50964 22.20193 3.75783
Ar 2.53451 2.57083 2.05666
Ar 22.73007 1.49053 4.56182
Ar 1.27370 3.52652 9.97543
Ar 2.38995 0.18905 6.98306
Ar 3.76207 3.12632 5.22424
Ar 1.11830 22.76459 10.72645
Ar 0.36924 2.79694 14.96932
Ar 1.52967 22.47710 14.35781
Ar 3.56243 1.97285 12.55576
Ar 0.11141 0.43696 17.58236
Ar 2.05501 3.96766 20.58719
Ar 3.42942 21.54049 19.22900
Ar 3.11582 2.14684 17.44058
Ar 0.30634 6.89778 21.86767
Ar 22.53543 7.82932 2.70526
Ar 2.93375 6.56054 1.48345
Ar 4.86927 9.57978 22.00747
Ar 0.97624 4.99211 4.19471
Ar 1.41079 7.44262 8.92652
Ar 3.85209 6.03638 7.18981
Ar 2.00731 8.52546 5.45270
Ar 0.51642 5.59517 12.85004
Ar 22.62809 8.48857 14.41132
Ar 4.07345 7.09007 14.72074
Ar 2.18766 8.96032 12.10083
Ar 1.55246 5.81736 17.20123
Ar 22.09982 8.88057 18.62925
Ar 2.90834 7.97793 19.35727
Ar 2.37804 9.89040 16.52941
Ar 1.20165 9.68322 0.38744
Ar 2.24444 13.81217 2.95805
Ar 4.50682 10.53385 2.75730
Ar 3.35267 13.63723 22.35942
Ar 0.48074 11.75001 5.49355
Ar 21.82663 13.49048 9.54846
Ar 2.07320 10.91921 8.59068
Ar 3.14153 14.07794 7.24125
Ar 22.67544 11.24594 11.90508
Ar 0.00725 15.24052 14.16286
Ar 2.69266 12.14933 14.01932
Ar 2.79978 14.70848 11.49601
Ar 22.66288 12.24850 16.79388
Ar 22.74236 14.64175 20.11939
Ar 1.71880 11.95787 19.86865
Ar 2.94689 14.32941 17.19670
Ar 0.52072 15.80230 0.72200
Ar 0.35039 20.95451 3.31332
Ar 1.28553 16.96778 4.46648
Ar 1.93847 19.50576 0.50336
Ar 22.19725 15.18531 6.78952
Ar 21.93590 21.14524 7.67092
Ar 1.81386 17.10240 8.59559
Ar 2.46637 19.72340 6.24940
Ar 21.68850 17.07799 11.49699
Ar 21.47117 18.86609 14.39388
Ar 3.04917 17.52895 14.73230
Ar 2.16313 19.33518 11.31336
Ar 21.78870 16.95111 17.09145
Ar 22.61059 19.71344 19.76277
Ar 2.50701 17.38377 19.83010
Ar 1.45903 19.85117 16.63568
Ar 5.47347 22.58168 0.77201
Ar 6.23363 3.12897 2.13358
Ar 8.32975 0.00373 2.55172
Ar 8.90806 2.65266 0.05806
Ar 5.85274 22.60316 6.46602
Ar 5.49743 2.82278 8.14413
Ar 8.62177 22.48754 8.75568
Ar 8.25576 2.52749 5.64977
Ar 5.64645 22.60555 10.99942
Ar 7.06611 2.18227 14.90593
Ar 8.08435 21.72012 14.45194
Ar 8.25962 2.22956 11.29192
Ar 6.22183 22.73541 17.68062
Ar 5.47719 2.29199 20.37292
Ar 8.90631 21.98390 20.77845
Ar 8.76072 2.06372 17.93663
Ar 6.08334 5.37489 22.12194
Ar 7.44827 7.91178 1.53723
Ar 8.63720 5.45299 4.27356
Ar 9.65023 10.27610 21.90129
Ar 5.62696 7.87857 4.84011
Ar 5.16109 8.64729 9.20845
Ar 7.35749 5.92161 9.20746
Ar 8.11693 8.63306 6.79862
Ar 4.18472 5.33089 11.02840
Ar 5.36897 9.76823 12.55047
Ar 6.98670 5.81054 13.16015
Ar 8.73419 9.34291 11.62794
Ar 6.00404 5.07497 17.56424
Ar 7.16312 7.95648 20.23977
Ar 9.87364 5.33090 20.53542
Ar 7.95224 8.49285 15.47518
Ar 6.89873 12.25009 0.31742
Ar 5.59070 14.05707 4.31897
Ar 8.10785 11.41335 4.20448
Ar 9.70208 13.48023 2.15533
Ar 5.54888 11.47102 6.87161
Ar 6.53668 14.81395 8.42533
Ar 10.38070 13.13130 8.44288
Ar 8.83963 14.63117 5.83822
Ar 6.85910 12.68314 11.15766
Ar 5.39377 14.61678 13.86161
Ar 8.10308 11.68410 14.19237
Ar 8.96598 15.77758 11.01455
Ar 5.52327 12.24366 16.76240
Ar 6.48316 15.06052 20.42298
Ar 8.25473 10.89461 18.51591
Ar 8.39770 14.59256 16.78848
Ar 4.65903 16.42580 1.37666
Ar 4.90633 19.24361 3.43899
Ar 7.51635 16.85320 3.45459
Ar 8.21778 19.25564 0.54713
Ar 4.54671 17.01067 5.90950
Ar 5.53443 19.85247 8.30874
Ar 9.19740 17.51836 8.06332
Ar 8.29374 20.23384 5.77318
Ar 4.93503 17.16214 10.80305
Ar 4.70192 20.56199 13.93784
Ar 8.39508 17.57338 14.44226
Ar 8.37653 19.83034 11.28980
Ar 5.83548 16.91071 17.35700
Ar 5.95182 18.45221 20.72130
Ar 9.28657 17.28508 20.29734
Ar 8.40334 19.62055 17.65939
Ar 11.60847 0.47896 0.44236
Ar 10.91214 2.89408 3.65311
Ar 14.24797 0.33055 3.25895
Ar 13.19401 3.71564 1.13448
Ar 11.31910 22.55793 5.32110
Ar 11.08348 2.57865 8.54644
Ar 14.48727 0.45834 8.57601
Ar 14.31414 3.48469 5.21933
Ar 11.80992 22.55074 11.19339
Ar 11.24143 2.11797 14.21739
Ar 14.92632 0.90819 13.97132
Ar 13.62209 3.10718 11.42640
Ar 11.07685 22.50015 16.70292
Ar 11.44994 2.24493 20.13105
Ar 13.30068 21.79212 19.59582
Ar 14.18358 2.66506 17.22563
Ar 10.64948 6.36524 0.94702
Ar 10.71213 9.29435 2.49265
Ar 12.59897 6.79579 3.98100
Ar 13.42694 8.14212 22.71429
Ar 11.13213 6.14729 7.21624
Ar 11.09163 9.78553 9.19593
Ar 14.19141 5.11349 8.38476
Ar 13.90032 8.68645 6.59894
Ar 10.70005 5.05050 10.94309
Ar 11.49036 8.72683 14.05858
Ar 13.99458 4.90111 14.40282
Ar 13.88952 7.57114 11.37343
Ar 11.17216 5.35245 16.71164
Ar 11.77950 8.21958 19.06907
Ar 13.74473 5.27531 19.54057
Ar 14.21834 7.52885 16.49524
Ar 12.50997 12.32715 0.79631
Ar 13.61200 14.11246 3.44224
Ar 15.13860 10.79902 3.21594
Ar 13.60170 14.86966 21.35051
Ar 12.02633 11.57087 5.27483
Ar 12.41501 16.44496 7.78882
Ar 14.18898 11.74077 8.87525
Ar 15.24347 14.13592 6.84338
Ar 11.92979 11.74034 12.23409
Ar 11.29075 14.91542 13.90215
Ar 15.21237 10.21447 14.14859
Ar 13.77162 14.90020 10.79898
Ar 11.37633 11.65497 15.86652
Ar 9.83407 13.71357 20.30815
Ar 13.34842 11.71211 19.83508
Ar 13.15997 15.18463 17.56400
Ar 11.67045 16.48375 0.86919
Ar 11.53180 20.22570 2.25583
Ar 14.53645 17.32425 3.17675
Ar 14.79331 19.66678 0.90605
Ar 10.87504 18.11155 4.92537
Ar 11.42116 20.55618 8.33048
Ar 15.47063 17.61901 8.36959
Ar 14.60259 19.99917 6.01610
Ar 11.96532 17.83184 11.41315
Ar 11.02357 20.09062 13.76528
Ar 14.31249 16.77365 14.23386
Ar 14.37215 20.32585 11.86790
Ar 11.53420 18.35132 16.55797
Ar 11.44617 19.78365 21.60675
Ar 13.93184 17.99054 20.43161
Ar 14.68392 20.14250 15.73153
Ar 17.07966 22.48059 0.19628
Ar 16.77231 3.04637 2.29829
Ar 20.58381 0.80712 1.52516
Ar 18.59632 3.90597 21.20981
Ar 19.24917 1.29326 4.71345
Ar 17.39785 3.30507 7.32260
Ar 21.68290 1.97444 8.14246
Ar 20.13757 4.77741 4.96740
Ar 17.02943 0.36462 10.76744
Ar 17.27395 3.77192 14.32437
Ar 20.84834 0.08011 14.36415
Ar 20.33671 3.48249 12.32613
Ar 16.24638 22.26888 17.71358
Ar 15.10105 2.36555 21.20981
Ar 19.50969 22.27287 19.59325
Ar 19.44681 2.06820 16.93145
Ar 16.17455 6.18704 22.27461
Ar 18.26740 8.80636 1.95746
Ar 19.90025 5.81300 1.34761
Ar 19.10040 7.51960 20.65728
Ar 16.43318 6.33646 4.74145
Ar 17.12108 7.34867 8.30450
Ar 20.42986 6.36204 8.37392
Ar 19.27505 8.62262 5.82167
Ar 17.10167 4.48311 10.73609
Ar 17.41037 7.43198 13.77720
Ar 20.66634 5.38557 15.48152
Ar 20.40635 7.64311 11.75485
Ar 17.03276 5.24354 17.96308
Ar 15.70746 9.53412 20.05681
Ar 21.72898 4.00301 19.01461
Ar 18.96395 8.52159 17.17943
Ar 16.49465 12.59174 22.71011
Ar 17.63399 13.87503 2.86500
Ar 20.88764 10.91518 2.00401
Ar 20.23378 13.82003 22.47654
Ar 16.53800 10.90814 6.41444
Ar 18.08832 12.68277 9.23896
Ar 20.67177 9.96610 9.18570
Ar 19.90046 12.25407 5.38207
Ar 16.80826 9.75845 10.74216
Ar 16.22549 13.60120 13.45701
Ar 19.19217 10.67429 14.49607
Ar 19.68507 14.08320 12.32973
Ar 16.71700 11.50262 16.92867
Ar 16.81336 14.18172 19.42411
Ar 18.77427 11.21249 20.39819
Ar 19.52092 14.13696 17.65251
Ar 16.54348 16.26031 22.79401
Ar 17.24813 20.56303 3.35104
Ar 20.78726 15.08911 3.07318
Ar 20.81160 18.05855 0.59066
Ar 18.11050 15.63496 5.64241
Ar 17.92727 21.70415 7.06838
Ar 19.06164 17.49071 8.63360
Ar 20.96520 18.41294 4.87276
Ar 16.99306 16.81665 12.01097
Ar 17.48106 19.71671 13.76967
Ar 17.97831 16.42227 15.36195
Ar 20.71346 20.80785 11.22231
Ar 16.15271 17.89873 17.72912
Ar 17.65889 19.27632 21.37854
Ar 19.60291 16.63650 19.99738
Ar 18.88262 20.00033 16.84351
256
frame 48
Ar 0.49188 0.54599 20.89768
Ar 22.46940 3.84826 0.54140
Ar 3.54929 22.18151 3.72281
Ar 2.50194 2.48952 2.05164
Ar 22.72801 1.59482 4.61167
Ar 1.22199 3.46479 9.93852
Ar 2.43769 0.29117 6.95074
Ar 3.85232 3.19593 5.14500
Ar 1.15679 22.79446 10.77099
Ar 0.32563 2.86002 15.00470
Ar 1.54844 22.31990 14.37585
Ar 3.57458 1.88035 12.60003
Ar 0.17423 0.35844 17.70368
Ar 2.14876 3.91976 20.57658
Ar 3.47447 21.51235 19.27362
Ar 2.99354 2.15008 17.41347
Ar 0.33289 6.94699 21.81537
Ar 22.49258 7.82615 2.68196
Ar 3.01015 6.67233 1.40868
Ar 4.86229 9.66208 21.99947
Ar 0.99269 5.00545 4.12834
Ar 1.45260 7.42205 9.03111
Ar 4.01202 5.97154 7.22936
Ar 2.09447 8.58533 5.39851
Ar 0.63355 5.48548 12.81979
Ar 22.55551 8.43587 14.46622
Ar 4.21299 7.04227 14.86542
Ar 2.18792 8.92485 12.14543
Ar 1.58278 5.83523 17.26349
Ar 22.12027 8.87333 18.55550
Ar 2.80365 8.00172 19.29662
Ar 2.43633 9.93870 16.53202
Ar 1.27358 9.75351 0.33064
Ar 2.18023 13.81616 3.01567
Ar 4.53305 10.49948 2.69068
Ar 3.41149 13.59893 22.43464
Ar 0.60897 11.90747 5.56327
Ar 21.90218 13.32837 9.57846
Ar 1.99439 10.89031 8.48035
Ar 3.18705 14.04053 7.21268
Ar 22.58709 11.15563 11.93990
Ar 22.75175 15.27043 14.21368
Ar 2.74406 12.11665 13.92182
Ar 2.67805 14.67083 11.50019
Ar 22.64848 12.29855 16.72797
Ar 22.72859 14.55885 20.19018
Ar 1.66259 11.90275 19.87255
Ar 2.79014 14.36386 17.21118
Ar 0.51369 15.92442 0.73130
Ar 0.42732 20.93744 3.38917
Ar 1.37616 17.07822 4.45875
Ar 1.89210 19.45149 0.52198
Ar 22.14186 15.16428 6.75492
Ar 21.84495 21.09089 7.74827
Ar 1.75505 17.04882 8.66701
Ar 2.57859 19.76704 6.23869
Ar 21.69784 17.07246 11.45841
Ar 21.31970 18.85724 14.35149
Ar 3.08562 17.63517 14.77096
Ar 2.17556 19.31038 11.36386
Ar 21.75741 16.93406 17.12676
Ar 22.47846 19.68635 19.83193
Ar 2.42791 17.41619 19.89798
Ar 1.53476 19.78469 16.67162
Ar 5.38786 22.54901 0.69511
Ar 6.21650 3.10147 2.11622
Ar 8.42475 0.07354 2.53992
Ar 8.95194 2.68166 22.76226
Ar 5.82483 22.63931 6.43880
Ar 5.46451 2.82538 8.08020
Ar 8.59662 22.50609 8.71973
Ar 8.18199 2.49589 5.56907
Ar 5.59702 22.53479 11.07714
Ar 7.09159 2.27741 14.92629
Ar 8.08608 21.80586 14.49862
Ar 8.26263 2.18084 11.29259
Ar 6.24224 22.75447 17.59784
Ar 5.49347 2.19708 20.25666
Ar 8.90641 21.85466 20.70587
Ar 8.81576 1.98171 17.84489
Ar 6.14067 5.39276 22.16595
Ar 7.44638 8.03324 1.58966
Ar 8.68111 5.54909 4.29714
Ar 9.68567 10.46837 21.89842
Ar 5.60515 7.93796 4.72456
Ar 5.05042 8.69101 9.19421
Ar 7.27503 5.91645 9.28393
Ar 8.04373 8.71913 6.76169
Ar 4.13609 5.38222 10.99301
Ar 5.46261 9.88183 12.47957
Ar 6.97846 5.69511 13.22326
Ar 8.75410 9.26933 11.62616
Ar 5.96857 4.97815 17.53589
Ar 7.25976 7.94777 20.20439
Ar 9.99822 5.30847 20.57896
Ar 7.95645 8.49484 15.54922
Ar 6.80682 12.29723 0.28557
Ar 5.63950 14.01985 4.27556
Ar 8.07737 11.42214 4.26075
Ar 9.86321 13.55328 2.16418
Ar 5.48389 11.43329 6.89447
Ar 6.49867 14.84317 8.37803
Ar 10.30607 13.14059 8.39448
Ar 8.80255 14.59831 5.64213
Ar 6.90407 12.79533 11.27955
Ar 5.34306 14.59771 13.99697
Ar 8.06033 11.68653 14.33949
Ar 8.98898 15.66670 11.03612
Ar 5.62994 12.31060 16.81674
Ar 6.45183 15.08428 20.38733
Ar 8.32777 10.73282 18.45654
Ar 8.52072 14.43548 16.82419
Ar 4.62122 16.54178 1.47574
Ar 4.91469 19.34673 3.33461
Ar 7.51308 16.75646 3.36961
Ar 8.17232 19.18227 0.51973
Ar 4.67450 17.02079 5.85173
Ar 5.57020 19.77639 8.18160
Ar 9.06315 17.55086 8.13462
Ar 8.17641 20.20484 5.74842
Ar 4.82674 17.12578 10.82142
Ar 4.74876 20.60115 13.84409
Ar 8.36447 17.56441 14.39413
Ar 8.34238 19.88386 11.26510
Ar 5.80718 16.87250 17.27864
Ar 5.91494 18.44819 20.79398
Ar 9.32785 17.26135 20.45085
Ar 8.43602 19.63170 17.60846
Ar 11.68690 0.42621 0.46491
Ar 11.00171 2.88442 3.67928
Ar 14.22971 0.46640 3.29902
Ar 13.06083 3.76321 1.03500
Ar 11.29477 22.58630 5.23673
Ar 11.00324 2.65363 8.51532
Ar 14.49234 0.47203 8.53833
Ar 14.32789 3.40183 5.07864
Ar 11.75813 22.46237 11.17508
Ar 11.19735 2.03818 14.27496
Ar 14.94212 0.89429 13.94884
Ar 13.58357 3.22593 11.36267
Ar 11.04097 22.50388 16.74707
Ar 11.48030 2.14036 20.18162
Ar 13.31931 21.73222 19.45449
Ar 14.20541 2.57294 17.17085
Ar 10.67250 6.36631 1.04126
Ar 10.75069 9.38850 2.37370
Ar 12.43971 6.87573 4.07369
Ar 13.38048 8.09132 22.76675
Ar 11.12328 6.24070 7.22416
Ar 11.14672 9.68893 9.25142
Ar 14.27068 5.29657 8.44609
Ar 13.93345 8.76944 6.62581
Ar 10.60087 5.03629 10.88359
Ar 11.39010 8.68739 14.17741
Ar 13.90055 4.93423 14.40327
Ar 13.80403 7.61015 11.23366
Ar 11.16716 5.32162 16.66966
Ar 11.72587 8.16949 19.08689
Ar 13.78325 5.29790 19.57156
Ar 14.18340 7.59267 16.55058
Ar 12.46750 12.34153 0.66050
Ar 13.64676 14.11734 3.51736
Ar 15.20318 10.70173 3.13145
Ar 13.62439 14.75663 21.37406
Ar 12.03920 11.45698 5.31123
Ar 12.38608 16.31920 7.82939
Ar 14.21947 11.66342 8.94793
Ar 15.21455 14.22136 6.91817
Ar 11.94109 11.84680 12.22139
Ar 11.25301 14.97384 13.95043
Ar 15.18489 10.17430 14.24855
Ar 13.86661 14.87756 10.87535
Ar 11.28071 11.71759 15.90458
Ar 9.85495 13.71142 20.40179
Ar 13.32493 11.79698 19.76978
Ar 13.14752 15.16968 17.64112
Ar 11.70555 16.53963 0.83634
Ar 11.53000 20.26603 2.24263
Ar 14.44099 17.41057 3.23227
Ar 14.77194 19.76593 0.94161
Ar 10.94892 18.20313 4.87521
Ar 11.42144 20.48971 8.33472
Ar 15.49214 17.61433 8.34458
Ar 14.59266 19.97840 6.07926
Ar 11.95727 17.81458 11.42181
Ar 11.09447 20.09153 13.82674
Ar 14.39791 16.67102 14.17279
Ar 14.45992 20.37142 11.87321
Ar 11.60656 18.33316 16.48107
Ar 11.42611 19.69828 21.66249
Ar 13.93440 17.97051 20.45876
Ar 14.55802 20.16316 15.76138
Ar 17.07345 22.57344 0.14278
Ar 16.83257 3.08763 2.27687
Ar 20.63503 0.78966 1.49814
Ar 18.59644 4.03691 21.24433
Ar 19.34380 1.27216 4.75482
Ar 17.33209 3.27191 7.33713
Ar 21.60262 2.01054 8.21669
Ar 20.21740 4.89210 4.92943
Ar 17.09215 0.37213 10.69842
Ar 17.26917 3.64241 14.33320
Ar 20.78770 0.03932 14.29617
Ar 20.34751 3.48536 12.45173
Ar 16.35943 22.35646 17.73234
Ar 15.08437 2.34753 21.23998
Ar 19.49664 22.28768 19.74601
Ar 19.40616 2.08553 16.94695
Ar 16.16467 6.20984 22.28388
Ar 18.22698 8.85694 1.88395
Ar 19.92274 5.86264 1.41605
Ar 19.04885 7.41102 20.65504
Ar 16.25504 6.36503 4.77298
Ar 17.12552 7.26180 8.29184
Ar 20.44012 6.41182 8.24315
Ar 19.33548 8.62649 5.79427
Ar 17.09886 4.50673 10.75104
Ar 17.38627 7.36056 13.80141
Ar 20.67320 5.27539 15.47501
Ar 20.40729 7.60247 11.74813
Ar 17.01525 5.29426 17.94748
Ar 15.70517 9.61538 20.01220
Ar 21.64691 4.12755 19.01259
Ar 18.94996 8.55138 17.16025
Ar 16.51970 12.53934 22.70354
Ar 17.56491 13.84293 2.87090
Ar 20.99388 10.91172 1.94279
Ar 20.17319 13.89942 22.38826
Ar 16.58867 10.80917 6.47506
Ar 18.02361 12.69679 9.18566
Ar 20.76565 9.96408 9.23620
Ar 19.90744 12.19549 5.32884
Ar 16.77221 9.78793 10.73663
Ar 16.16402 13.56532 13.39113
Ar 19.13825 10.70754 14.48980
Ar 19.70205 14.13154 12.40493
Ar 16.75829 11.53273 17.04046
Ar 16.75791 14.17864 19.37247
Ar 18.83023 11.26044 20.47657
Ar 19.52190 14.20566 17.69894
Ar 16.52359 16.11164 22.77468
Ar 17.30382 20.55613 3.35967
Ar 20.80915 15.02438 3.06613
Ar 20.87188 17.98075 0.62481
Ar 18.06209 15.61636 5.77447
Ar 17.85680 21.66322 7.08157
Ar 19.09921 17.50369 8.49968
Ar 20.76401 18.43782 4.90000
Ar 17.12899 16.70679 11.92801
Ar 17.49632 19.69577 13.75178
Ar 18.07601 16.39373 15.37238
Ar 20.77378 20.85195 11.19128
Ar 16.22418 17.91177 17.66020
Ar 17.71543 19.24550 21.36101
Ar 19.61642 16.61385 19.95326
Ar 18.90704 19.98264 16.90130
256
frame 49
Ar 0.57758 0.60659 20.99514
Ar 22.47035 3.87269 0.46504
Ar 3.57229 22.26619 3.68958
Ar 2.47755 2.39287 2.01752
Ar 22.75375 1.69937 4.66020
Ar 1.20443 3.42580 9.90974
Ar 2.45579 0.42503 6.95166
Ar 3.94871 3.24899 5.04392
Ar 1.18715 22.81564 10.80213
Ar 0.28846 2.90405 15.05068
Ar 1.57089 22.16619 14.38028
Ar 3.57341 1.83296 12.66986
Ar 0.18615 0.25088 17.75610
Ar 2.25271 3.87653 20.57009
Ar 3.50207 21.47707 19.33562
Ar 2.91160 2.17187 17.38044
Ar 0.32475 6.94774 21.72259
Ar 22.44115 7.82525 2.67857
Ar 3.10308 6.77911 1.33979
Ar 4.82612 9.73741 21.99068
Ar 1.00984 5.02072 4.07464
Ar 1.46247 7.39093 9.14223
Ar 4.17717 5.90060 7.26444
Ar 2.18003 8.64397 5.34354
Ar 0.76436 5.39033 12.77289
Ar 22.46021 8.39710 14.56819
Ar 4.33528 7.00330 15.01351
Ar 2.22692 8.84946 12.17798
Ar 1.57988 5.79988 17.26733
Ar 22.15541 8.86814 18.48862
Ar 2.74430 8.06090 19.31558
Ar 2.50339 9.97896 16.53112
Ar 1.38302 9.90748 0.28049
Ar 2.12418 13.81200 3.07956
Ar 4.54572 10.48816 2.62025
Ar 3.47327 13.56292 22.50898
Ar 0.72440 12.06723 5.60904
Ar 21.97391 13.20043 9.59171
Ar 1.92551 10.85534 8.40988
Ar 3.21029 14.01474 7.18162
Ar 22.47679 11.07336 12.03007
Ar 22.69196 15.27649 14.27106
Ar 2.79349 12.09176 13.82069
Ar 2.51703 14.60980 11.49501
Ar 22.61239 12.35407 16.65330
Ar 22.68782 14.55128 20.24243
Ar 1.65181 11.75847 19.86192
Ar 2.62351 14.41756 17.22530
Ar 0.57754 16.00631 0.72823
Ar 0.46386 20.91003 3.47179
Ar 1.45773 17.17688 4.42593
Ar 1.85582 19.39178 0.52888
Ar 22.07467 15.16071 6.68799
Ar 21.76050 21.03388 7.81172
Ar 1.69380 16.99519 8.73169
Ar 2.67509 19.81831 6.23991
Ar 21.70784 17.06652 11.37082
Ar 21.16554 18.88137 14.30571
Ar 3.14097 17.67966 14.77047
Ar 2.17128 19.30371 11.43036
Ar 21.74202 16.91737 17.19373
Ar 22.33222 19.66555 19.90675
Ar 2.35606 17.43955 19.96373
Ar 1.57928 19.73519 16.75669
Ar 5.29729 22.51188 0.59642
Ar 6.18988 3.07581 2.12104
Ar 8.53416 0.13515 2.54083
Ar 8.99319 2.71106 22.64090
Ar 5.80303 22.69806 6.38055
Ar 5.44820 2.82958 8.07449
Ar 8.56502 22.53449 8.67881
Ar 8.08351 2.42069 5.52135
Ar 5.57199 22.44163 11.11235
Ar 7.09415 2.39839 14.91720
Ar 8.09141 21.88376 14.54116
Ar 8.26831 2.14159 11.30080
Ar 6.23795 22.73633 17.49788
Ar 5.51390 2.10387 20.15170
Ar 8.88841 21.74743 20.62529
Ar 8.89557 1.95768 17.78887
Ar 6.18594 5.39319 22.21743
Ar 7.43816 8.16313 1.63476
Ar 8.72342 5.69746 4.30405
Ar 9.72550 10.63959 21.89450
Ar 5.55363 7.96850 4.58254
Ar 4.93429 8.74609 9.18142
Ar 7.21281 5.90330 9.35713
Ar 8.02515 8.81289 6.76796
Ar 4.07804 5.43806 10.96207
Ar 5.55013 9.98793 12.44169
Ar 6.99506 5.57349 13.27616
Ar 8.77001 9.18125 11.63438
Ar 5.93316 4.88001 17.51106
Ar 7.37737 7.92929 20.14936
Ar 10.11315 5.29828 20.60260
Ar 7.95300 8.46689 15.63225
Ar 6.72902 12.36600 0.26642
Ar 5.65716 13.95667 4.21971
Ar 8.04310 11.39467 4.31458
Ar 9.97898 13.66354 2.19296
Ar 5.42636 11.38483 6.91322
Ar 6.45852 14.87709 8.32688
Ar 10.24025 13.14654 8.36752
Ar 8.79857 14.57118 5.45828
Ar 6.94600 12.91083 11.37333
Ar 5.30502 14.59684 14.14054
Ar 8.03412 11.71173 14.48506
Ar 9.01617 15.55487 11.07720
Ar 5.71592 12.36513 16.87849
Ar 6.41012 15.07124 20.35296
Ar 8.42303 10.59066 18.39008
Ar 8.65931 14.28550 16.86223
Ar 4.55908 16.62889 1.54283
Ar 4.97109 19.41526 3.21630
Ar 7.54029 16.70045 3.26781
Ar 8.13322 19.11849 0.51969
Ar 4.82227 17.01451 5.81783
Ar 5.60832 19.66820 8.09484
Ar 8.91490 17.59931 8.19378
Ar 8.06917 20.17154 5.70519
Ar 4.77129 17.11171 10.83449
Ar 4.79666 20.63588 13.76405
Ar 8.33045 17.55355 14.34422
Ar 8.30865 19.92777 11.23739
Ar 5.77184 16.83952 17.19525
Ar 5.85447 18.47525 20.85714
Ar 9.37246 17.22723 20.58752
Ar 8.46213 19.64771 17.56150
Ar 11.77429 0.37115 0.48677
Ar 11.10111 2.88076 3.68836
Ar 14.21991 0.57248 3.31471
Ar 12.95029 3.81712 0.92494
Ar 11.26085 22.59845 5.16856
Ar 10.92978 2.69955 8.45549
Ar 14.46561 0.48852 8.47459
Ar 14.33405 3.33602 4.95877
Ar 11.69025 22.40817 11.16513
Ar 11.15192 1.97899 14.31092
Ar 14.95165 0.86606 13.92455
Ar 13.55471 3.32177 11.28777
Ar 11.02575 22.46350 16.79909
Ar 11.53130 2.02791 20.22033
Ar 13.34065 21.67561 19.31801
Ar 14.22254 2.47443 17.12167
Ar 10.65426 6.30980 1.12628
Ar 10.78629 9.54901 2.27725
Ar 12.30055 6.93276 4.15339
Ar 13.33112 8.07842 22.81102
Ar 11.08634 6.33545 7.24679
Ar 11.22148 9.58131 9.27967
Ar 14.34245 5.46072 8.49996
Ar 13.94939 8.82242 6.67295
Ar 10.49018 5.06260 10.85033
Ar 11.29843 8.62478 14.28843
Ar 13.80720 4.96275 14.38627
Ar 13.71615 7.64981 11.10171
Ar 11.14915 5.28549 16.63593
Ar 11.65869 8.14451 19.11271
Ar 13.81332 5.32204 19.61107
Ar 14.16369 7.67303 16.62304
Ar 12.47404 12.30019 0.50219
Ar 13.68027 14.10824 3.59559
Ar 15.25886 10.60138 3.03962
Ar 13.64980 14.64198 21.38978
Ar 12.03773 11.34832 5.35026
Ar 12.33043 16.18384 7.86154
Ar 14.22709 11.57456 9.04790
Ar 15.16610 14.30813 6.98574
Ar 11.95426 11.94916 12.20055
Ar 11.20503 15.03584 14.00556
Ar 15.13779 10.13228 14.32548
Ar 13.96574 14.84548 10.94491
Ar 11.19578 11.79555 15.96680
Ar 9.88942 13.70789 20.49388
Ar 13.24143 11.89883 19.67837
Ar 13.13736 15.15014 17.71760
Ar 11.72827 16.60721 0.81640
Ar 11.51931 20.31384 2.24554
Ar 14.35197 17.49039 3.32516
Ar 14.75521 19.89719 0.92569
Ar 11.03068 18.26514 4.84485
Ar 11.43809 20.39456 8.32266
Ar 15.54256 17.60311 8.35270
Ar 14.56553 19.98357 6.11793
Ar 11.94267 17.78936 11.40773
Ar 11.16377 20.14257 13.84813
Ar 14.47876 16.58568 14.12790
Ar 14.56405 20.41184 11.87793
Ar 11.68661 18.26338 16.46972
Ar 11.38871 19.64187 21.73874
Ar 13.98299 17.95705 20.45705
Ar 14.40189 20.20369 15.76020
Ar 17.07073 22.67257 0.09109
Ar 16.89776 3.13278 2.24989
Ar 20.68885 0.76662 1.45617
Ar 18.61283 4.11764 21.27546
Ar 19.40116 1.24859 4.80763
Ar 17.27068 3.23742 7.34616
Ar 21.48315 2.02815 8.26529
Ar 20.29100 5.00469 4.89193
Ar 17.18343 0.38137 10.65502
Ar 17.26790 3.51413 14.35248
Ar 20.71910 22.81624 14.22732
Ar 20.36377 3.47760 12.55573
Ar 16.48835 22.46912 17.75905
Ar 15.07523 2.32207 21.26342
Ar 19.49145 22.30687 19.90614
Ar 19.36014 2.10070 16.96919
Ar 16.15146 6.22499 22.30925
Ar 18.15634 8.90890 1.81146
Ar 19.90757 5.90723 1.47777
Ar 19.01705 7.33112 20.64740
Ar 16.08795 6.40400 4.79959
Ar 17.11833 7.18744 8.27512
Ar 20.48604 6.43344 8.12997
Ar 19.40447 8.63292 5.73910
Ar 17.09784 4.53389 10.77537
Ar 17.35978 7.27858 13.82815
Ar 20.66389 5.19506 15.48522
Ar 20.40245 7.54534 11.75073
Ar 17.00701 5.34385 17.92573
Ar 15.74656 9.63091 19.97527
Ar 21.56316 4.25324 19.01487
Ar 18.91646 8.56004 17.14774
Ar 16.51481 12.46726 22.69058
Ar 17.47474 13.79675 2.87603
Ar 21.10823 10.94529 1.88075
Ar 20.09376 13.98458 22.32786
Ar 16.67435 10.72749 6.52653
Ar 17.96842 12.73344 9.13100
Ar 20.84623 9.96147 9.24882
Ar 19.90162 12.14457 5.28328
Ar 16.74225 9.81337 10.75284
Ar 16.10704 13.51499 13.33322
Ar 19.09663 10.75745 14.44998
Ar 19.71814 14.16930 12.48692
Ar 16.79891 11.56883 17.16317
Ar 16.63239 14.19326 19.36642
Ar 18.91203 11.29082 20.52818
Ar 19.58734 14.21224 17.68356
Ar 16.51805 15.97765 22.76612
Ar 17.36761 20.55150 3.37741
Ar 20.85127 14.96527 3.07244
Ar 20.86635 17.95754 0.65435
Ar 18.04436 15.61471 5.90031
Ar 17.78636 21.61906 7.10132
Ar 19.15755 17.52926 8.38582
Ar 20.55688 18.46338 4.92984
Ar 17.27055 16.59889 11.80636
Ar 17.52030 19.68921 13.71842
Ar 18.20365 16.34885 15.34799
Ar 20.82767 20.89151 11.16449
Ar 16.27347 17.90902 17.64652
Ar 17.76552 19.22907 21.33999
Ar 19.62681 16.62843 19.94686
Ar 18.96543 19.96874 16.97526
256
frame 50
Ar 0.66641 0.67083 21.15605
Ar 22.47846 3.87602 0.38305
Ar 3.57982 22.43308 3.66302
Ar 2.45374 2.29107 1.95249
Ar 22.80577 1.79816 4.70572
Ar 1.22208 3.40697 9.88082
Ar 2.44409 0.57940 6.98200
Ar 4.04912 3.28699 4.92511
Ar 1.20857 22.82333 10.81894
Ar 0.26580 2.90374 15.10718
Ar 1.58642 22.02817 14.37087
Ar 3.56374 1.82901 12.76424
Ar 0.14924 0.11543 17.75629
Ar 2.36024 3.84363 20.56785
Ar 3.51869 21.43872 19.41292
Ar 2.87415 2.20918 17.34285
Ar 0.29381 6.93376 21.61350
Ar 22.40169 7.84092 2.68573
Ar 3.20484 6.88262 1.27693
Ar 4.77790 9.79217 21.96230
Ar 1.03778 5.03987 4.02907
Ar 1.44657 7.34121 9.23884
Ar 4.32781 5.85309 7.28974
Ar 2.25486 8.70155 5.29184
Ar 0.89986 5.32613 12.72067
Ar 22.35778 8.36303 14.69898
Ar 4.43731 6.97932 15.15998
Ar 2.29223 8.75401 12.21875
Ar 1.55205 5.72341 17.22445
Ar 22.19564 8.86527 18.42588
Ar 2.72971 8.14374 19.40147
Ar 2.57433 10.01831 16.51987
Ar 1.50488 10.09537 0.23794
Ar 2.08516 13.81533 3.12705
Ar 4.53804 10.51422 2.54425
Ar 3.52070 13.53056 22.57688
Ar 0.79716 12.21357 5.62222
Ar 22.04615 13.13134 9.57433
Ar 1.87312 10.80390 8.39875
Ar 3.21415 14.01496 7.15242
Ar 22.36193 10.98712 12.18697
Ar 22.65138 15.26796 14.32662
Ar 2.83784 12.06372 13.72610
Ar 2.33172 14.54533 11.47612
Ar 22.55903 12.40190 16.57195
Ar 22.65121 14.58602 20.26820
Ar 1.66731 11.56975 19.84114
Ar 2.46306 14.48525 17.23894
Ar 0.71394 16.03693 0.71666
Ar 0.46279 20.87466 3.55960
Ar 1.52498 17.25984 4.37190
Ar 1.83022 19.33596 0.52688
Ar 21.99660 15.17357 6.60693
Ar 21.68565 20.97622 7.85022
Ar 1.63102 16.94356 8.78368
Ar 2.75593 19.88139 6.25281
Ar 21.71954 17.05968 11.25126
Ar 21.01713 18.92004 14.26205
Ar 3.21308 17.66517 14.72692
Ar 2.14629 19.31656 11.50956
Ar 21.75009 16.91795 17.27301
Ar 22.17620 19.64997 19.98462
Ar 2.29008 17.45500 20.02715
Ar 1.58889 19.69770 16.89762
Ar 5.21178 22.47208 0.48143
Ar 6.16335 3.04721 2.13824
Ar 8.64495 0.18780 2.54375
Ar 9.02261 2.73048 22.53404
Ar 5.78521 22.75202 6.30524
Ar 5.44940 2.82305 8.12825
Ar 8.53329 22.56561 8.63010
Ar 7.98560 2.34027 5.48296
Ar 5.57491 22.35182 11.07979
Ar 7.07657 2.52843 14.88567
Ar 8.10773 21.95294 14.57047
Ar 8.27439 2.10949 11.31747
Ar 6.21035 22.68825 17.38517
Ar 5.53870 2.01689 20.06353
Ar 8.85333 21.66313 20.53831
Ar 8.97955 1.99443 17.77189
Ar 6.22329 5.38421 22.26950
Ar 7.43330 8.29936 1.66119
Ar 8.75980 5.86254 4.30734
Ar 9.75284 10.76273 21.88843
Ar 5.49868 7.95848 4.45224
Ar 4.81827 8.80298 9.17631
Ar 7.17294 5.88993 9.42597
Ar 8.03943 8.89834 6.80664
Ar 4.01499 5.49355 10.94338
Ar 5.61184 10.07588 12.43520
Ar 7.03293 5.45688 13.31099
Ar 8.78857 9.08061 11.65206
Ar 5.89997 4.77954 17.49473
Ar 7.49677 7.88942 20.09886
Ar 10.22232 5.29801 20.60611
Ar 7.93620 8.40355 15.71322
Ar 6.68500 12.45579 0.26450
Ar 5.63191 13.87340 4.14974
Ar 8.01530 11.33367 4.34878
Ar 10.05776 13.79047 2.23440
Ar 5.37790 11.33145 6.92099
Ar 6.42643 14.90853 8.27661
Ar 10.17808 13.14375 8.35504
Ar 8.84007 14.54743 5.32631
Ar 6.97364 13.01890 11.44237
Ar 5.27558 14.61649 14.28034
Ar 8.02486 11.74329 14.59982
Ar 9.06311 15.46659 11.12497
Ar 5.75710 12.41176 16.96839
Ar 6.36258 15.03076 20.31793
Ar 8.54509 10.49043 18.31791
Ar 8.80906 14.16389 16.91218
Ar 4.46463 16.66367 1.56650
Ar 5.07318 19.47403 3.10593
Ar 7.59011 16.69426 3.13955
Ar 8.10281 19.07076 0.55396
Ar 4.97830 16.99894 5.79111
Ar 5.65083 19.54751 8.05694
Ar 8.76569 17.65592 8.24227
Ar 7.98568 20.13209 5.63425
Ar 4.76055 17.10410 10.84533
Ar 4.84122 20.64680 13.72459
Ar 8.29462 17.54294 14.29350
Ar 8.27928 19.96166 11.21166
Ar 5.73782 16.80886 17.11432
Ar 5.77124 18.52325 20.90404
Ar 9.40444 17.17234 20.69636
Ar 8.48412 19.66141 17.51736
Ar 11.86772 0.32864 0.50152
Ar 11.18126 2.89268 3.68731
Ar 14.21933 0.60242 3.27993
Ar 12.87373 3.86451 0.79951
Ar 11.21798 22.58664 5.12532
Ar 10.86357 2.71840 8.36820
Ar 14.41767 0.50706 8.39582
Ar 14.34494 3.33474 4.89379
Ar 11.61259 22.38620 11.15861
Ar 11.10622 1.94036 14.32389
Ar 14.95030 0.82153 13.89325
Ar 13.53271 3.39267 11.20670
Ar 11.03720 22.36895 16.84928
Ar 11.59889 1.91326 20.23857
Ar 13.36892 21.61359 19.19716
Ar 14.23155 2.37935 17.08149
Ar 10.58055 6.23170 1.20821
Ar 10.81992 9.74221 2.20300
Ar 12.18765 6.98055 4.20987
Ar 13.28175 8.10005 0.02069
Ar 11.02461 6.42506 7.30075
Ar 11.30271 9.47411 9.28129
Ar 14.36909 5.57757 8.52863
Ar 13.94805 8.83227 6.74041
Ar 10.37288 5.12680 10.84450
Ar 11.22104 8.55080 14.39185
Ar 13.72685 4.99065 14.35632
Ar 13.62826 7.69725 10.99533
Ar 11.11460 5.24627 16.61652
Ar 11.57967 8.14808 19.14395
Ar 13.83454 5.34284 19.65404
Ar 14.15589 7.75353 16.71041
Ar 12.51615 12.19737 0.36291
Ar 13.70903 14.08271 3.66768
Ar 15.29661 10.50442 2.95142
Ar 13.68333 14.59458 21.39678
Ar 12.01709 11.25687 5.38516
Ar 12.24871 16.05655 7.89125
Ar 14.21724 11.49441 9.15736
Ar 15.09695 14.36703 7.05400
Ar 11.96588 12.04158 12.17687
Ar 11.15255 15.10125 14.06849
Ar 15.08074 10.09710 14.38066
Ar 14.05691 14.81382 10.99059
Ar 11.13748 11.87562 16.04617
Ar 9.93443 13.72452 20.57231
Ar 13.12242 11.96383 19.54514
Ar 13.12916 15.12693 17.79049
Ar 11.74533 16.67789 0.80811
Ar 11.49809 20.36366 2.27055
Ar 14.27219 17.57013 3.43567
Ar 14.74489 20.04349 0.87601
Ar 11.10824 18.29495 4.84983
Ar 11.46270 20.27942 8.29515
Ar 15.60654 17.58575 8.39160
Ar 14.52189 20.01414 6.13360
Ar 11.92564 17.76176 11.37713
Ar 11.22327 20.23090 13.83747
Ar 14.55613 16.52494 14.10103
Ar 14.66874 20.44803 11.87627
Ar 11.75543 18.14153 16.51467
Ar 11.36222 19.62612 21.81623
Ar 14.06286 17.94352 20.43792
Ar 14.25568 20.27177 15.74208
Ar 17.07563 22.76980 0.04617
Ar 16.96762 3.18162 2.21693
Ar 20.74415 0.73967 1.40575
Ar 18.64215 4.11768 21.30886
Ar 19.42044 1.22262 4.86763
Ar 17.21316 3.20198 7.35052
Ar 21.32592 2.02716 8.29054
Ar 20.35552 5.10515 4.85515
Ar 17.29203 0.39304 10.62807
Ar 17.26349 3.39616 14.38002
Ar 20.64715 22.76959 14.16581
Ar 20.38441 3.45382 12.62247
Ar 16.62114 22.58994 17.78448
Ar 15.07245 2.29494 21.27712
Ar 19.49554 22.33141 20.06972
Ar 19.31486 2.10838 17.00020
Ar 16.12850 6.23591 22.35470
Ar 18.07631 8.96513 1.73545
Ar 19.85327 5.93760 1.52109
Ar 19.01177 7.31139 20.62513
Ar 15.93441 6.45420 4.81995
Ar 17.14033 7.15246 8.25241
Ar 20.56674 6.42847 8.04884
Ar 19.47762 8.63929 5.65408
Ar 17.10160 4.56124 10.81186
Ar 17.33123 7.18908 13.85709
Ar 20.62912 5.16475 15.52302
Ar 20.39344 7.47298 11.75896
Ar 17.00785 5.39029 17.89736
Ar 15.80354 9.60469 19.95025
Ar 21.48329 4.37969 19.02402
Ar 18.86909 8.55104 17.14045
Ar 16.47983 12.37052 22.67116
Ar 17.37897 13.74844 2.89516
Ar 21.21672 11.01089 1.81743
Ar 19.99183 14.07763 22.31087
Ar 16.78523 10.66945 6.56566
Ar 17.92657 12.79385 9.08226
Ar 20.90498 9.94153 9.21809
Ar 19.89199 12.10512 5.24412
Ar 16.72625 9.82630 10.79056
Ar 16.06847 13.44031 13.29113
Ar 19.06323 10.81955 14.38410
Ar 19.73966 14.18574 12.57132
Ar 16.83959 11.60178 17.27332
Ar 16.47947 14.23200 19.38868
Ar 19.01482 11.29501 20.54703
Ar 19.67830 14.15095 17.63650
Ar 16.53271 15.87270 22.76835
Ar 17.43600 20.54938 3.40078
Ar 20.90389 14.90985 3.08631
Ar 20.78972 17.98916 0.67956
Ar 18.05258 15.60622 5.98654
Ar 17.71885 21.57303 7.12648
Ar 19.24433 17.58291 8.31187
Ar 20.35187 18.48857 4.95794
Ar 17.40844 16.50581 11.65883
Ar 17.55103 19.68906 13.68327
Ar 18.34745 16.30032 15.29008
Ar 20.87176 20.92383 11.14901
Ar 16.29812 17.89405 17.66728
Ar 17.80285 19.22795 21.32209
Ar 19.62865 16.67727 19.97581
Ar 19.05284 19.96204 17.06067
256
frame 51
Ar 0.75420 0.73148 21.34199
Ar 22.48536 3.86501 0.30057
Ar 3.58283 22.61619 3.64757
Ar 2.41938 2.20770 1.84804
Ar 0.04570 1.88455 4.74630
Ar 1.26149 3.39618 9.83529
Ar 2.41171 0.74394 7.03904
Ar 4.14804 3.31409 4.80994
Ar 1.22288 22.81829 10.82224
Ar 0.25400 2.85876 15.16455
Ar 1.58997 21.90526 14.35155
Ar 3.55474 1.85517 12.87518
Ar 0.08039 22.79224 17.74035
Ar 2.46871 3.82582 20.57023
Ar 3.52949 21.40178 19.50465
Ar 2.87369 2.24789 17.30589
Ar 0.24575 6.92299 21.50560
Ar 22.38082 7.87882 2.69825
Ar 3.30820 6.98465 1.21900
Ar 4.74340 9.82597 21.90479
Ar 1.08508 5.06659 3.98631
Ar 1.40172 7.27180 9.30664
Ar 4.45081 5.84679 7.29473
Ar 2.30746 8.76166 5.24705
Ar 1.02612 5.29186 12.68251
Ar 22.25737 8.32885 14.84418
Ar 4.51795 6.97385 15.29671
Ar 2.37017 8.65646 12.28173
Ar 1.51529 5.63842 17.16224
Ar 22.23206 8.86394 18.36625
Ar 2.75153 8.21739 19.51467
Ar 2.64595 10.05605 16.50002
Ar 1.61445 10.28656 0.21315
Ar 2.07687 13.84404 3.12733
Ar 4.50834 10.58222 2.46857
Ar 3.53393 13.50513 22.63306
Ar 0.80192 12.31237 5.62614
Ar 22.12268 13.11583 9.54046
Ar 1.83358 10.73712 8.44039
Ar 3.21045 14.05004 7.13328
Ar 22.24720 10.90272 12.38530
Ar 22.62930 15.25718 14.37378
Ar 2.87640 12.02679 13.64519
Ar 2.13381 14.49461 11.43954
Ar 22.49881 12.42407 16.48412
Ar 22.63558 14.63183 20.26749
Ar 1.68968 11.38644 19.80754
Ar 2.31737 14.56683 17.25403
Ar 0.87584 16.03490 0.69698
Ar 0.43522 20.83683 3.64944
Ar 1.58077 17.32644 4.30197
Ar 1.81618 19.29902 0.51948
Ar 21.90868 15.20597 6.52477
Ar 21.62219 20.91847 7.85221
Ar 1.57026 16.89716 8.81874
Ar 2.82181 19.95821 6.27156
Ar 21.72958 17.05149 11.12018
Ar 20.88862 18.95706 14.21951
Ar 3.28182 17.61692 14.65596
Ar 2.10239 19.34315 11.59545
Ar 21.78469 16.94241 17.35094
Ar 22.01527 19.63766 20.06502
Ar 2.22813 17.46406 20.08772
Ar 1.57857 19.65192 17.07091
Ar 5.13291 22.43022 0.35373
Ar 6.14775 3.01096 2.15299
Ar 8.74925 0.23168 2.54043
Ar 9.03453 2.73224 22.45054
Ar 5.75922 22.77278 6.23152
Ar 5.46579 2.79111 8.23234
Ar 8.50568 22.59367 8.57200
Ar 7.91329 2.28599 5.44130
Ar 5.59527 22.29209 10.97041
Ar 7.04659 2.62219 14.85757
Ar 8.14100 22.01541 14.57583
Ar 8.28044 2.08278 11.34189
Ar 6.16529 22.62498 17.26931
Ar 5.56875 1.93650 19.99455
Ar 8.80358 21.60134 20.44893
Ar 9.05115 2.07579 17.78128
Ar 6.25633 5.37259 22.31761
Ar 7.44235 8.44165 1.65772
Ar 8.77895 6.02548 4.31767
Ar 9.74322 10.80321 21.87677
Ar 5.45883 7.90348 4.35739
Ar 4.70849 8.84924 9.18772
Ar 7.15538 5.88258 9.49138
Ar 8.07175 8.96108 6.87258
Ar 3.96149 5.54388 10.94022
Ar 5.64479 10.13891 12.45456
Ar 7.08551 5.38197 13.31020
Ar 8.81415 8.96784 11.67505
Ar 5.87151 4.67538 17.49529
Ar 7.60778 7.82169 20.06517
Ar 10.32761 5.30124 20.59254
Ar 7.90009 8.30302 15.77867
Ar 6.69290 12.55634 0.28130
Ar 5.57383 13.78406 4.06720
Ar 7.99771 11.24910 4.35327
Ar 10.12686 13.91084 2.25801
Ar 5.33707 11.28357 6.91018
Ar 6.40989 14.92885 8.23482
Ar 10.11466 13.12553 8.35389
Ar 8.91334 14.53039 5.26703
Ar 6.96394 13.09812 11.49426
Ar 5.25270 14.64893 14.40269
Ar 8.02639 11.76185 14.66276
Ar 9.15185 15.43178 11.16542
Ar 5.74836 12.45167 17.09954
Ar 6.31190 14.97496 20.28088
Ar 8.69376 10.44877 18.24950
Ar 8.94834 14.10232 16.99213
Ar 4.34213 16.64232 1.55253
Ar 5.20289 19.56041 3.01587
Ar 7.64951 16.72125 2.99221
Ar 8.08163 19.04763 0.61429
Ar 5.13093 16.97835 5.75171
Ar 5.69462 19.43526 8.07573
Ar 8.62887 17.71242 8.28407
Ar 7.93238 20.08845 5.53112
Ar 4.77996 17.09279 10.85785
Ar 4.88149 20.62370 13.74318
Ar 8.25705 17.53512 14.24255
Ar 8.25882 19.98427 11.19124
Ar 5.71239 16.78281 17.04904
Ar 5.67096 18.58193 20.93486
Ar 9.41514 17.09963 20.77335
Ar 8.50265 19.66584 17.47228
Ar 11.96600 0.31120 0.50188
Ar 11.22487 2.92245 3.67627
Ar 14.22899 0.54251 3.19140
Ar 12.83717 3.89480 0.65728
Ar 11.17045 22.55229 5.11327
Ar 10.80337 2.72089 8.26336
Ar 14.35815 0.52704 8.31107
Ar 14.37111 3.40902 4.89470
Ar 11.53096 22.39488 11.14338
Ar 11.06052 1.91638 14.31983
Ar 14.93470 0.75996 13.85187
Ar 13.51225 3.43900 11.12372
Ar 11.05935 22.23637 16.88546
Ar 11.67796 1.80172 20.23079
Ar 13.41759 21.54096 19.10540
Ar 14.22875 2.29441 17.05104
Ar 10.45175 6.16581 1.28450
Ar 10.84740 9.93145 2.16201
Ar 12.10763 7.03153 4.23788
Ar 13.22802 8.14671 0.04520
Ar 10.94098 6.50185 7.38966
Ar 11.35889 9.38810 9.25343
Ar 14.33156 5.62419 8.51704
Ar 13.94188 8.80211 6.82630
Ar 10.26060 5.21546 10.86098
Ar 11.16283 8.47313 14.48890
Ar 13.66573 5.02088 14.31651
Ar 13.55477 7.75163 10.94409
Ar 11.06204 5.20590 16.61550
Ar 11.49415 8.18321 19.17616
Ar 13.84803 5.35957 19.69659
Ar 14.15553 7.82083 16.81388
Ar 12.58845 12.04948 0.26896
Ar 13.73053 14.04483 3.72990
Ar 15.29830 10.41982 2.87915
Ar 13.71209 14.63198 21.40043
Ar 11.97361 11.18987 5.41268
Ar 12.14032 15.95318 7.92337
Ar 14.19385 11.43715 9.26284
Ar 15.02068 14.38439 7.12144
Ar 11.97209 12.12198 12.15455
Ar 11.10315 15.16845 14.13946
Ar 15.02139 10.07506 14.41243
Ar 14.12707 14.79456 10.99294
Ar 11.13845 11.93168 16.12878
Ar 9.98925 13.78556 20.62362
Ar 12.98595 11.97063 19.37304
Ar 13.12278 15.10097 17.85563
Ar 11.76340 16.74239 0.81426
Ar 11.46637 20.40561 2.32453
Ar 14.21097 17.64911 3.54331
Ar 14.73882 20.19204 0.80904
Ar 11.16725 18.29348 4.89922
Ar 11.48865 20.15329 8.25853
Ar 15.67326 17.57097 8.45341
Ar 14.46606 20.06453 6.13445
Ar 11.90940 17.73684 11.33679
Ar 11.26893 20.32445 13.82016
Ar 14.63082 16.49274 14.09353
Ar 14.75943 20.48203 11.86161
Ar 11.79850 17.99053 16.58610
Ar 11.36274 19.65433 21.87303
Ar 14.15471 17.93499 20.41488
Ar 14.14461 20.36652 15.71627
Ar 17.09338 0.03335 0.01560
Ar 17.04071 3.23339 2.17907
Ar 20.79960 0.70993 1.35230
Ar 18.67660 4.03803 21.34931
Ar 19.41145 1.19448 4.92966
Ar 17.15929 3.16646 7.35278
Ar 21.14480 2.01469 8.30260
Ar 20.41046 5.18398 4.81893
Ar 17.40827 0.40774 10.61000
Ar 17.25418 3.29503 14.41206
Ar 20.57325 22.72911 14.11931
Ar 20.40907 3.41320 12.64606
Ar 16.74915 22.70555 17.80818
Ar 15.07364 2.27350 21.27613
Ar 19.51098 22.36299 20.23244
Ar 19.27989 2.10917 17.04194
Ar 16.10126 6.24204 22.41807
Ar 18.01276 9.01959 1.64726
Ar 19.76508 5.94979 1.53521
Ar 19.03036 7.35360 20.58891
Ar 15.79838 6.51766 4.83194
Ar 17.22246 7.16934 8.22143
Ar 20.67616 6.40327 8.00796
Ar 19.55516 8.63836 5.54184
Ar 17.11089 4.58721 10.85964
Ar 17.30047 7.09515 13.88849
Ar 20.56617 5.18905 15.58971
Ar 20.38261 7.38958 11.76979
Ar 17.01627 5.43095 17.86332
Ar 15.85742 9.55099 19.94118
Ar 21.40980 4.50633 19.04074
Ar 18.81460 8.53164 17.13314
Ar 16.42164 12.24882 22.64425
Ar 17.28758 13.70144 2.93049
Ar 21.31167 11.10361 1.75354
Ar 19.87028 14.17578 22.34086
Ar 16.90011 10.62779 6.59345
Ar 17.89856 12.87740 9.04644
Ar 20.94265 9.89749 9.15350
Ar 19.88476 12.08276 5.20962
Ar 16.73328 9.82228 10.85055
Ar 16.06344 13.33403 13.27470
Ar 19.03340 10.88708 14.30331
Ar 19.77432 14.16948 12.65426
Ar 16.88279 11.62766 17.35443
Ar 16.33864 14.29599 19.41955
Ar 19.13240 11.27314 20.53586
Ar 19.76241 14.04344 17.59207
Ar 16.57272 15.80404 22.78338
Ar 17.50434 20.55045 3.42579
Ar 20.96178 14.85880 3.09877
Ar 20.68001 18.04418 0.70327
Ar 18.07352 15.57303 6.02245
Ar 17.65699 21.52585 7.15657
Ar 19.36130 17.67313 8.29077
Ar 20.15485 18.51489 4.97767
Ar 17.53146 16.43621 11.49337
Ar 17.58590 19.69085 13.65517
Ar 18.49214 16.26093 15.21086
Ar 20.90338 20.94620 11.15053
Ar 16.30887 17.86912 17.69712
Ar 17.81955 19.24826 21.31310
Ar 19.62034 16.73787 20.01772
Ar 19.15973 19.96237 17.15729
256
frame 52
Ar 0.83932 0.78049 21.53146
Ar 22.48297 3.84856 0.22117
Ar 3.58865 22.75858 3.65224
Ar 2.36260 2.17302 1.69037
Ar 0.10343 1.95361 4.77806
Ar 1.30893 3.38387 9.76375
Ar 2.37298 0.90952 7.12144
Ar 4.22905 3.33813 4.72943
Ar 1.23366 22.80549 10.81414
Ar 0.23618 2.78237 15.21021
Ar 1.57942 21.79361 14.33122
Ar 3.55059 1.89842 12.99453
Ar 22.81568 22.65151 17.72574
Ar 2.57689 3.82589 20.57725
Ar 3.53758 21.37120 19.60956
Ar 2.90530 2.27303 17.27591
Ar 0.18118 6.91933 21.40850
Ar 22.37284 7.93607 2.71104
Ar 3.40746 7.08590 1.16491
Ar 4.75467 9.84856 21.82131
Ar 1.15609 5.10566 3.94151
Ar 1.32467 7.18905 9.34223
Ar 4.54231 5.87734 7.27333
Ar 2.33040 8.82839 5.21208
Ar 1.12224 5.27534 12.67938
Ar 22.16344 8.29104 14.98845
Ar 4.57456 6.98720 15.41576
Ar 2.45065 8.56812 12.36935
Ar 1.47747 5.56642 17.09627
Ar 22.25940 8.86291 18.31641
Ar 2.80841 8.23917 19.61925
Ar 2.71618 10.08740 16.47724
Ar 1.68918 10.46742 0.22342
Ar 2.10125 13.89809 3.07595
Ar 4.46341 10.67830 2.40598
Ar 3.50685 13.48724 22.67096
Ar 0.73543 12.34219 5.64424
Ar 22.19653 13.13501 9.50259
Ar 1.79644 10.66784 8.51185
Ar 3.20763 14.11793 7.12771
Ar 22.13636 10.82945 12.58997
Ar 22.62627 15.25723 14.40909
Ar 2.90715 11.98648 13.57822
Ar 1.93379 14.46304 11.39128
Ar 22.45352 12.39902 16.38563
Ar 22.63572 14.67313 20.24970
Ar 1.70277 11.26056 19.75365
Ar 2.19001 14.66170 17.27212
Ar 1.01785 16.01035 0.66376
Ar 0.39052 20.80298 3.73787
Ar 1.62973 17.37872 4.22302
Ar 1.81364 19.29686 0.50988
Ar 21.81394 15.26062 6.45357
Ar 21.57007 20.86134 7.81385
Ar 1.51970 16.86069 8.82981
Ar 2.87551 20.04695 6.29156
Ar 21.72998 17.04135 10.99798
Ar 20.80187 18.98089 14.17864
Ar 3.32718 17.55645 14.57141
Ar 2.04479 19.37358 11.68013
Ar 21.84058 16.98548 17.42046
Ar 21.85609 19.62732 20.14818
Ar 2.16905 17.46765 20.14505
Ar 1.56314 19.58513 17.24903
Ar 5.05876 22.38667 0.21774
Ar 6.15885 2.96173 2.14086
Ar 8.84073 0.26775 2.52350
Ar 9.02946 2.71372 22.39008
Ar 5.71475 22.74274 6.18074
Ar 5.49277 2.73186 8.37248
Ar 8.48457 22.61514 8.50438
Ar 7.88387 2.27842 5.39244
Ar 5.61317 22.26325 10.80981
Ar 7.00925 2.62523 14.86280
Ar 8.19597 22.07244 14.54777
Ar 8.28720 2.06022 11.37183
Ar 6.10193 22.55684 17.16191
Ar 5.60552 1.86022 19.94508
Ar 8.74230 21.56122 20.36322
Ar 9.10898 2.17831 17.80304
Ar 6.28744 5.36208 22.35955
Ar 7.46875 8.59040 1.62068
Ar 8.76464 6.17812 4.34849
Ar 9.68424 10.76033 21.84924
Ar 5.43995 7.81278 4.29496
Ar 4.61329 8.87360 9.22325
Ar 7.15284 5.88594 9.55205
Ar 8.11523 8.99452 6.96674
Ar 3.94275 5.58391 10.94685
Ar 5.65774 10.16885 12.49255
Ar 7.14798 5.39730 13.25123
Ar 8.84517 8.84456 11.70058
Ar 5.84950 4.56816 17.52090
Ar 7.70891 7.73448 20.04552
Ar 10.42689 5.29735 20.56987
Ar 7.84497 8.17131 15.82545
Ar 6.75810 12.65737 0.31573
Ar 5.50416 13.70114 3.97789
Ar 7.98979 11.15767 4.32423
Ar 10.20411 14.00836 2.23736
Ar 5.30066 11.25046 6.87543
Ar 6.41409 14.92899 8.21016
Ar 10.04487 13.08347 8.36456
Ar 8.99012 14.52661 5.28198
Ar 6.91037 13.14986 11.53215
Ar 5.23600 14.67181 14.49117
Ar 8.03054 11.76177 14.68095
Ar 9.28309 15.45173 11.18909
Ar 5.70505 12.48544 17.26635
Ar 6.25943 14.91310 20.24112
Ar 8.85624 10.46069 18.19641
Ar 9.03990 14.12997 17.11660
Ar 4.21580 16.59183 1.52326
Ar 5.34034 19.66989 2.93964
Ar 7.70817 16.74177 2.85643
Ar 8.07315 19.06776 0.66953
Ar 5.27248 16.95784 5.68278
Ar 5.72222 19.35392 8.14633
Ar 8.53016 17.75502 8.32156
Ar 7.90706 20.04241 5.40268
Ar 4.81604 17.07526 10.87553
Ar 4.92644 20.58168 13.80138
Ar 8.21619 17.53246 14.19176
Ar 8.25218 19.99453 11.17909
Ar 5.70259 16.77146 17.01949
Ar 5.56318 18.64393 20.95576
Ar 9.40325 17.03878 20.82453
Ar 8.51602 19.65379 17.42131
Ar 12.06421 0.31941 0.48363
Ar 11.23266 2.96584 3.65471
Ar 14.25380 0.43752 3.08494
Ar 12.83006 3.91401 0.50425
Ar 11.12454 22.50583 5.13849
Ar 10.74807 2.71739 8.15060
Ar 14.29224 0.54834 8.22524
Ar 14.40798 3.50565 4.93440
Ar 11.44885 22.43381 11.10655
Ar 11.01539 1.90061 14.30612
Ar 14.90397 0.68560 13.79986
Ar 13.48813 3.46038 11.04453
Ar 11.06508 22.09757 16.90074
Ar 11.76036 1.69749 20.19361
Ar 13.50140 21.45577 19.05755
Ar 14.21142 2.22275 17.02920
Ar 10.28687 6.11810 1.34048
Ar 10.85544 10.08787 2.17566
Ar 12.06554 7.09265 4.24467
Ar 13.16663 8.20716 0.06242
Ar 10.83926 6.55263 7.49520
Ar 11.34830 9.35852 9.18975
Ar 14.25900 5.61200 8.45992
Ar 13.94186 8.74942 6.92414
Ar 10.17050 5.31361 10.89775
Ar 11.12672 8.39601 14.58059
Ar 13.62381 5.05497 14.27023
Ar 13.52478 7.79363 10.97463
Ar 10.99428 5.16615 16.63256
Ar 11.41099 8.25063 19.20553
Ar 13.85763 5.37372 19.73529
Ar 14.15941 7.86895 16.93345
Ar 12.70972 11.89777 0.19775
Ar 13.74126 14.00009 3.78142
Ar 15.24394 10.35550 2.83508
Ar 13.69499 14.71035 21.41964
Ar 11.90981 11.14575 5.43569
Ar 12.00716 15.88487 7.95951
Ar 14.16325 11.40865 9.35703
Ar 14.95268 14.36062 7.18467
Ar 11.96894 12.19064 12.13773
Ar 11.06436 15.23376 14.21830
Ar 14.96280 10.06537 14.42078
Ar 14.17444 14.79437 10.94759
Ar 11.23275 11.93328 16.18709
Ar 10.05672 13.87278 20.64939
Ar 12.84696 11.92918 19.19253
Ar 13.11941 15.07116 17.90897
Ar 11.78737 16.79749 0.83765
Ar 11.42654 20.43150 2.40382
Ar 14.18367 17.71851 3.62946
Ar 14.73331 20.33558 0.73490
Ar 11.18969 18.26535 4.99614
Ar 11.51040 20.02377 8.22142
Ar 15.73681 17.56633 8.52720
Ar 14.40447 20.13122 6.12907
Ar 11.89883 17.72084 11.29274
Ar 11.29319 20.39816 13.80500
Ar 14.70416 16.48588 14.10338
Ar 14.82611 20.51394 11.82775
Ar 11.81520 17.84543 16.66095
Ar 11.38717 19.72074 21.89405
Ar 14.24358 17.94012 20.39991
Ar 14.07902 20.47454 15.69131
Ar 17.12765 0.10541 0.00923
Ar 17.11409 3.28631 2.13863
Ar 20.85371 0.67785 1.29960
Ar 18.70896 3.91084 21.39572
Ar 19.38604 1.16473 4.98901
Ar 17.11000 3.13189 7.35679
Ar 20.95310 1.99708 8.31051
Ar 20.45768 5.23351 4.78269
Ar 17.52723 0.42579 10.59710
Ar 17.24033 3.21335 14.44454
Ar 20.49695 22.70032 14.09530
Ar 20.43776 3.36209 12.63593
Ar 16.85973 22.79964 17.83500
Ar 15.07824 2.26367 21.25426
Ar 19.54096 22.40377 20.38806
Ar 19.27223 2.11343 17.09324
Ar 16.07969 6.24170 22.49358
Ar 17.98968 9.06416 1.53727
Ar 19.65499 5.94799 1.51649
Ar 19.06383 7.42736 20.54967
Ar 15.68819 6.60112 4.83233
Ar 17.34441 7.22017 8.18587
Ar 20.80738 6.36459 8.00617
Ar 19.63890 8.62321 5.40940
Ar 17.12415 4.61237 10.91401
Ar 17.26727 6.99986 13.92279
Ar 20.48071 5.25080 15.67162
Ar 20.37191 7.29939 11.78179
Ar 17.02964 5.46215 17.82573
Ar 15.90144 9.47558 19.94937
Ar 21.34371 4.63198 19.06468
Ar 18.75931 8.51009 17.11991
Ar 16.35124 12.11069 22.60875
Ar 17.20667 13.65392 2.97605
Ar 21.38976 11.21850 1.69068
Ar 19.74107 14.26851 22.40866
Ar 16.99948 10.59328 6.61367
Ar 17.88269 12.98101 9.02784
Ar 20.96521 9.83688 9.07131
Ar 19.88381 12.08201 5.17807
Ar 16.76768 9.80191 10.93111
Ar 16.09489 13.20189 13.28380
Ar 19.00072 10.95222 14.21963
Ar 19.82460 14.11458 12.72597
Ar 16.92857 11.64858 17.40271
Ar 16.24459 14.37646 19.43573
Ar 19.25946 11.23360 20.50418
Ar 19.81570 13.92409 17.57018
Ar 16.63721 15.77180 22.81386
Ar 17.56581 20.55791 3.44728
Ar 21.02184 14.81366 3.09922
Ar 20.56460 18.10256 0.72828
Ar 18.09942 15.51760 6.02482
Ar 17.60308 21.47786 7.19155
Ar 19.49573 17.78875 8.31545
Ar 19.97300 18.54298 4.98118
Ar 17.63688 16.38915 11.31780
Ar 17.61307 19.69457 13.63733
Ar 18.62677 16.23778 15.12778
Ar 20.92274 20.95629 11.16539
Ar 16.32057 17.83726 17.71574
Ar 17.80753 19.29784 21.31743
Ar 19.60510 16.78895 20.05141
Ar 19.27693 19.96809 17.26599
256
frame 53
Ar 0.92003 0.80590 21.70457
Ar 22.46089 3.83920 0.14540
Ar 3.58688 0.02276 3.66467
Ar 2.29422 2.19146 1.49511
Ar 0.14227 2.00510 4.79511
Ar 1.35593 3.37083 9.67153
Ar 2.34213 1.06684 7.22636
Ar 4.27647 3.36765 4.70589
Ar 1.24429 22.79117 10.79722
Ar 0.19758 2.68571 15.23731
Ar 1.55444 21.69356 14.32084
Ar 3.55041 1.95024 13.11691
Ar 22.71103 22.52840 17.71643
Ar 2.68365 3.84377 20.58857
Ar 3.54161 21.35281 19.72274
Ar 2.96553 2.27544 17.25581
Ar 0.10260 6.92472 21.32806
Ar 22.36964 8.00694 2.71891
Ar 3.49829 7.18643 1.11355
Ar 4.83104 9.87820 21.73158
Ar 1.24958 5.15972 3.89153
Ar 1.22308 7.10274 9.35457
Ar 4.60602 5.92580 7.23031
Ar 2.32603 8.90330 5.18710
Ar 1.16910 5.25986 12.72202
Ar 22.07901 8.24623 15.10657
Ar 4.59927 7.01293 15.51351
Ar 2.52495 8.49468 12.47560
Ar 1.44056 5.51759 17.03264
Ar 22.27628 8.86308 18.29701
Ar 2.89517 8.16627 19.68909
Ar 2.78383 10.10787 16.45638
Ar 1.71944 10.62644 0.26838
Ar 2.13776 13.94964 3.01600
Ar 4.41492 10.77844 2.36436
Ar 3.46183 13.47504 22.68004
Ar 0.62441 12.31947 5.66972
Ar 22.24666 13.16811 9.45449
Ar 1.75082 10.60916 8.59428
Ar 3.20140 14.20473 7.12827
Ar 22.04197 10.77283 12.77550
Ar 22.64278 15.27847 14.43213
Ar 2.92365 11.95580 13.52039
Ar 1.75119 14.45119 11.35167
Ar 22.44617 12.31245 16.27024
Ar 22.64006 14.70174 20.22554
Ar 1.69303 11.23188 19.67994
Ar 2.08166 14.76631 17.29317
Ar 1.09106 15.97217 0.60056
Ar 0.33289 20.77820 3.82241
Ar 1.67523 17.41968 4.14219
Ar 1.82033 19.33616 0.50106
Ar 21.71936 15.33698 6.40458
Ar 21.52938 20.80901 7.74120
Ar 1.49077 16.84013 8.80711
Ar 2.92001 20.14324 6.31062
Ar 21.71258 17.02778 10.90731
Ar 20.78147 18.98518 14.14464
Ar 3.33773 17.49647 14.48133
Ar 1.97886 19.39645 11.75363
Ar 21.90668 17.03651 17.47802
Ar 21.70842 19.61928 20.23511
Ar 2.11343 17.46510 20.20040
Ar 1.55326 19.49817 17.41284
Ar 4.98741 22.34245 0.07966
Ar 6.20776 2.89395 2.08176
Ar 8.91528 0.29724 2.48860
Ar 9.01237 2.67649 22.34644
Ar 5.66468 22.66871 6.17154
Ar 5.52556 2.65648 8.53329
Ar 8.47208 22.62828 8.42802
Ar 7.89289 2.31396 5.34150
Ar 5.61317 22.25526 10.62973
Ar 6.96594 2.55202 14.89336
Ar 8.27070 22.12330 14.48526
Ar 8.29515 2.04103 11.40459
Ar 6.01908 22.48678 17.06848
Ar 5.65037 1.78405 19.91509
Ar 8.67209 21.54199 20.28680
Ar 9.15414 2.28387 17.83068
Ar 6.31813 5.35501 22.39397
Ar 7.50576 8.74330 1.55500
Ar 8.70795 6.31847 4.41324
Ar 9.59173 10.66715 21.80295
Ar 5.43959 7.70316 4.24899
Ar 4.54403 8.87087 9.28407
Ar 7.15087 5.90328 9.59846
Ar 8.16304 9.00443 7.08592
Ar 3.97757 5.60951 10.95194
Ar 5.66500 10.15710 12.54196
Ar 7.21596 5.48800 13.14906
Ar 8.87681 8.71539 11.72834
Ar 5.83457 4.46409 17.57353
Ar 7.80080 7.64184 20.03110
Ar 10.51426 5.27740 20.54620
Ar 7.78586 8.02542 15.86410
Ar 6.86596 12.75638 0.36481
Ar 5.44452 13.63563 3.89172
Ar 7.98810 11.07184 4.26860
Ar 10.28962 14.07485 2.17431
Ar 5.26539 11.23303 6.81794
Ar 6.44069 14.90458 8.20681
Ar 9.96492 13.00994 8.38999
Ar 9.05587 14.53678 5.35014
Ar 6.83273 13.20103 11.55377
Ar 5.22748 14.65693 14.53351
Ar 8.03843 11.75190 14.68115
Ar 9.42500 15.49243 11.19271
Ar 5.64592 12.51313 17.45283
Ar 6.20638 14.85126 20.20026
Ar 9.00547 10.50831 18.15984
Ar 9.08348 14.22709 17.27244
Ar 4.13343 16.54530 1.50118
Ar 5.46342 19.78689 2.86806
Ar 7.75924 16.71304 2.76645
Ar 8.08544 19.15763 0.67948
Ar 5.40130 16.94455 5.58137
Ar 5.70046 19.32481 8.24855
Ar 8.50731 17.76365 8.35450
Ar 7.90660 19.99446 5.26636
Ar 4.85925 17.05102 10.90166
Ar 4.98450 20.53952 13.87227
Ar 8.16990 17.53650 14.14139
Ar 8.26191 19.99383 11.17790
Ar 5.71195 16.78822 17.04259
Ar 5.45863 18.70230 20.97491
Ar 9.36624 17.03554 20.85996
Ar 8.51978 19.61857 17.36021
Ar 12.15024 0.34288 0.44628
Ar 11.21628 3.01741 3.62445
Ar 14.30165 0.32295 2.99651
Ar 12.83230 3.93734 0.35283
Ar 11.08456 22.46108 5.20706
Ar 10.69767 2.71419 8.03562
Ar 14.22201 0.57141 8.14074
Ar 14.44144 3.57986 4.98869
Ar 11.36781 22.49968 11.04307
Ar 10.97236 1.88958 14.28785
Ar 14.86024 0.61003 13.73889
Ar 13.45705 3.45585 10.97552
Ar 11.04381 21.97782 16.90392
Ar 11.83636 1.60300 20.12462
Ar 13.62151 21.36165 19.05772
Ar 14.17905 2.16400 17.01370
Ar 10.11175 6.07852 1.35939
Ar 10.83321 10.20201 2.24833
Ar 12.05877 7.16514 4.23998
Ar 13.09837 8.26834 0.07301
Ar 10.72342 6.55606 7.58883
Ar 11.26710 9.40682 9.10891
Ar 14.18391 5.56495 8.36747
Ar 13.95038 8.69896 7.02611
Ar 10.12407 5.40785 10.95832
Ar 11.11236 8.32183 14.66801
Ar 13.59690 5.09340 14.22165
Ar 13.54154 7.81378 11.07588
Ar 10.91846 5.13031 16.66300
Ar 11.34313 8.34127 19.23324
Ar 13.87093 5.38766 19.76691
Ar 14.16648 7.89986 17.06330
Ar 12.87555 11.76708 0.11637
Ar 13.73632 13.95275 3.82304
Ar 15.13475 10.30797 2.82192
Ar 13.61203 14.79134 21.47238
Ar 11.83321 11.11808 5.46290
Ar 11.85871 15.85422 7.99776
Ar 14.13500 11.40466 9.43846
Ar 14.89750 14.30675 7.24253
Ar 11.95323 12.24981 12.13044
Ar 11.04066 15.29100 14.30378
Ar 14.90261 10.05805 14.41176
Ar 14.20956 14.81087 10.87036
Ar 11.39625 11.89371 16.18149
Ar 10.14301 13.92525 20.66413
Ar 12.72562 11.84574 19.05126
Ar 13.12251 15.02994 17.95047
Ar 11.81920 16.85207 0.87646
Ar 11.38397 20.43663 2.49067
Ar 14.19905 17.77005 3.68185
Ar 14.72567 20.46706 0.65774
Ar 11.16566 18.21468 5.13264
Ar 11.52320 19.89771 8.19450
Ar 15.79138 17.57547 8.59880
Ar 14.34360 20.21428 6.12225
Ar 11.90453 17.72440 11.25012
Ar 11.29043 20.43966 13.78303
Ar 14.77743 16.49640 14.12515
Ar 14.86426 20.54060 11.76938
Ar 11.80621 17.74459 16.72510
Ar 11.42587 19.81394 21.87873
Ar 14.31976 17.96588 20.40273
Ar 14.06563 20.57748 15.67301
Ar 17.17606 0.16208 0.03644
Ar 17.18327 3.33663 2.09905
Ar 20.90450 0.64353 1.25087
Ar 18.73509 3.76117 21.44467
Ar 19.35203 1.13339 5.04133
Ar 17.06754 3.09883 7.36709
Ar 20.75927 1.97779 8.32053
Ar 20.50078 5.24862 4.74569
Ar 17.64709 0.44737 10.58807
Ar 17.22270 3.14928 14.47479
Ar 20.41693 22.68722 14.09941
Ar 20.46934 3.30838 12.60560
Ar 16.93386 0.02842 17.87274
Ar 15.09159 2.26526 21.20700
Ar 19.59005 22.45628 20.52778
Ar 19.31427 2.13981 17.14853
Ar 16.06827 6.23502 22.57583
Ar 18.00841 9.10194 1.40536
Ar 19.53820 5.93930 1.46905
Ar 19.10541 7.50592 20.51810
Ar 15.61456 6.71162 4.81580
Ar 17.47548 7.28222 8.15113
Ar 20.95025 6.31391 8.03308
Ar 19.72735 8.59584 5.26556
Ar 17.13922 4.63751 10.96924
Ar 17.23131 6.90642 13.96045
Ar 20.37779 5.32572 15.75150
Ar 20.36242 7.20584 11.79460
Ar 17.04437 5.47914 17.78746
Ar 15.93492 9.38329 19.97192
Ar 21.28431 4.75354 19.09453
Ar 18.70839 8.49468 17.09601
Ar 16.28286 11.97013 22.56388
Ar 17.14085 13.60233 3.02337
Ar 21.44782 11.35053 1.63142
Ar 19.62738 14.33910 22.50017
Ar 17.07478 10.56162 6.63082
Ar 17.87671 13.09857 9.02677
Ar 20.97669 9.77167 8.98319
Ar 19.88933 12.10240 5.14854
Ar 16.82620 9.76983 11.02663
Ar 16.15134 13.06550 13.30396
Ar 18.95346 11.00401 14.14770
Ar 19.88743 14.02466 12.76889
Ar 16.97248 11.66592 17.42331
Ar 16.21824 14.46238 19.42534
Ar 19.39177 11.18716 20.46181
Ar 19.82269 13.82279 17.58005
Ar 16.70450 15.77495 0.03516
Ar 17.60902 20.58052 3.45696
Ar 21.08228 14.77615 3.07720
Ar 20.45302 18.15779 0.75718
Ar 18.12674 15.45208 6.01533
Ar 17.55878 21.42922 7.23156
Ar 19.62734 17.91259 8.36713
Ar 19.81602 18.56671 4.96795
Ar 17.73393 16.35355 11.14634
Ar 17.61310 19.70333 13.62883
Ar 18.74325 16.23420 15.05869
Ar 20.93286 20.95287 11.17973
Ar 16.34582 17.80193 17.70846
Ar 17.76415 19.37840 21.33504
Ar 19.58320 16.81862 20.06666
Ar 19.39803 19.97773 17.38409
256
frame 54
Ar 0.97600 0.77467 21.80497
Ar 22.40541 3.85049 0.07011
Ar 3.55719 0.07687 3.65535
Ar 2.26598 2.26267 1.34139
Ar 0.15875 2.04269 4.79344
Ar 1.39521 3.37164 9.58021
Ar 2.33143 1.20057 7.33806
Ar 4.29732 3.40391 4.73015
Ar 1.25681 22.78032 10.77430
Ar 0.13623 2.57465 15.24849
Ar 1.51603 21.61148 14.33249
Ar 3.55143 2.00554 13.23903
Ar 22.59192 22.42517 17.71159
Ar 2.78780 3.87699 20.60363
Ar 3.53218 21.35309 19.82987
Ar 3.04427 2.25255 17.24264
Ar 0.01854 6.94523 21.27155
Ar 22.36830 8.08637 2.71636
Ar 3.57779 7.28650 1.06328
Ar 4.96575 9.93207 21.65444
Ar 1.35948 5.22797 3.83526
Ar 1.12570 7.02329 9.36347
Ar 4.64660 5.97633 7.17792
Ar 2.30434 8.98431 5.16979
Ar 1.16724 5.23322 12.80316
Ar 22.00768 8.19223 15.16922
Ar 4.57772 7.03788 15.59056
Ar 2.58572 8.43718 12.59377
Ar 1.40420 5.49295 16.97309
Ar 22.28393 8.86867 18.33365
Ar 2.99186 8.01099 19.71672
Ar 2.84837 10.11545 16.43990
Ar 1.70551 10.74132 0.32338
Ar 2.15939 13.97319 2.99127
Ar 4.37458 10.85483 2.34235
Ar 3.43682 13.47519 22.64614
Ar 0.49994 12.27009 5.69387
Ar 22.24153 13.19381 9.37328
Ar 1.69106 10.56779 8.67694
Ar 3.18619 14.29353 7.12351
Ar 21.98346 10.73430 12.92230
Ar 22.67580 15.32348 14.44520
Ar 2.91878 11.94513 13.46686
Ar 1.61604 14.46612 11.35065
Ar 22.47539 12.17491 16.14150
Ar 22.63813 14.71138 20.20193
Ar 1.66821 11.28101 19.59844
Ar 1.99405 14.87408 17.31568
Ar 1.05363 15.93572 0.49348
Ar 0.26350 20.76529 3.90194
Ar 1.71855 17.45244 4.06525
Ar 1.83324 19.41015 0.49581
Ar 21.63512 15.43119 6.38360
Ar 21.50484 20.77368 7.64245
Ar 1.48887 16.84223 8.74741
Ar 2.95301 20.24139 6.32656
Ar 21.68075 17.00578 10.87115
Ar 20.83471 18.97193 14.12253
Ar 3.31340 17.44168 14.39359
Ar 1.90857 19.39977 11.80275
Ar 21.96602 17.08356 17.52208
Ar 21.58545 19.61462 20.32905
Ar 2.06426 17.45361 20.25881
Ar 1.55937 19.40806 17.54860
Ar 4.92047 22.30047 22.77532
Ar 6.28332 2.80596 1.98592
Ar 8.97330 0.32005 2.43719
Ar 8.98972 2.62385 22.31150
Ar 5.63252 22.57227 6.21117
Ar 5.56131 2.57807 8.70169
Ar 8.47122 22.63237 8.34482
Ar 7.92188 2.37388 5.29634
Ar 5.59038 22.26022 10.45016
Ar 6.91820 2.45651 14.92254
Ar 8.35320 22.16533 14.39685
Ar 8.30363 2.02510 11.43757
Ar 5.92139 22.41329 16.98734
Ar 5.70432 1.70340 19.90496
Ar 8.59462 21.54184 20.22195
Ar 9.18307 2.37773 17.86433
Ar 6.34904 5.35375 22.41927
Ar 7.54130 8.89225 1.46707
Ar 8.62322 6.44669 4.51195
Ar 9.48942 10.55112 21.74790
Ar 5.44595 7.59299 4.20358
Ar 4.50950 8.84415 9.36369
Ar 7.14333 5.93556 9.61383
Ar 8.20268 9.00557 7.21924
Ar 4.05282 5.61726 10.95292
Ar 5.68155 10.10340 12.59676
Ar 7.27941 5.60335 13.04557
Ar 8.90422 8.59260 11.75975
Ar 5.82823 4.37551 17.64752
Ar 7.88115 7.55337 20.01520
Ar 10.58155 5.23993 20.52463
Ar 7.75048 7.88423 15.90706
Ar 6.99633 12.85480 0.42525
Ar 5.41702 13.60334 3.82358
Ar 7.98547 10.99850 4.20586
Ar 10.37313 14.10493 2.09075
Ar 5.22873 11.22516 6.74488
Ar 6.48618 14.85894 8.22045
Ar 9.87487 12.90368 8.43340
Ar 9.11141 14.55775 5.43935
Ar 6.74861 13.26618 11.55865
Ar 5.23027 14.59564 14.53835
Ar 8.05461 11.74134 14.68330
Ar 9.54200 15.51707 11.17760
Ar 5.58091 12.53210 17.64183
Ar 6.15501 14.79604 20.16580
Ar 9.11099 10.58581 18.12880
Ar 9.10434 14.35231 17.43193
Ar 4.13994 16.52603 1.49895
Ar 5.54845 19.90431 2.79434
Ar 7.80320 16.63327 2.71792
Ar 8.12400 19.31208 0.63831
Ar 5.51882 16.94263 5.46012
Ar 5.62484 19.34474 8.36148
Ar 8.56407 17.73521 8.37883
Ar 7.93445 19.94551 5.14315
Ar 4.90425 17.01857 10.93905
Ar 5.05631 20.50448 13.94128
Ar 8.11680 17.54697 14.09133
Ar 8.28614 19.98673 11.18811
Ar 5.73602 16.83441 17.11201
Ar 5.36877 18.74712 21.00028
Ar 9.30396 17.10357 20.88562
Ar 8.50763 19.55608 17.28814
Ar 12.21127 0.37320 0.39303
Ar 11.18751 3.07369 3.58800
Ar 14.37782 0.21535 2.95062
Ar 12.82920 3.97439 0.21610
Ar 11.05024 22.42869 5.31947
Ar 10.65339 2.71419 7.92148
Ar 14.14794 0.59764 8.05910
Ar 14.46143 3.61910 5.04442
Ar 11.28919 22.58496 10.95726
Ar 10.93436 1.88315 14.26812
Ar 14.80758 0.55098 13.67053
Ar 13.41811 3.42599 10.92089
Ar 11.00677 21.88999 16.91454
Ar 11.89845 1.51826 20.02341
Ar 13.76436 21.26674 19.09617
Ar 14.13362 2.11578 17.00183
Ar 9.94064 6.03885 1.34011
Ar 10.79316 10.28733 2.34468
Ar 12.07341 7.24567 4.22831
Ar 13.02532 8.31061 0.07736
Ar 10.60149 6.50111 7.65573
Ar 11.15053 9.52216 9.04343
Ar 14.11849 5.49442 8.25599
Ar 13.96285 8.67421 7.12988
Ar 10.14008 5.48354 11.04327
Ar 11.11701 8.25217 14.75191
Ar 13.57993 5.13576 14.17441
Ar 13.57802 7.82238 11.20904
Ar 10.84487 5.10616 16.69884
Ar 11.30800 8.42980 19.26785
Ar 13.89819 5.40398 19.78838
Ar 14.17643 7.91937 17.19251
Ar 13.03722 11.65929 0.02248
Ar 13.71122 13.90562 3.85640
Ar 14.99288 10.26599 2.83253
Ar 13.49156 14.85891 21.55123
Ar 11.75234 11.10221 5.50669
Ar 11.70766 15.85313 8.03587
Ar 14.11779 11.41431 9.50880
Ar 14.85099 14.23686 7.29299
Ar 11.92313 12.30301 12.13564
Ar 11.03144 15.33290 14.39076
Ar 14.83493 10.03842 14.39529
Ar 14.24199 14.83932 10.78221
Ar 11.56523 11.84971 16.05120
Ar 10.24744 13.91229 20.68233
Ar 12.65222 11.72459 19.01979
Ar 13.13366 14.96824 17.98310
Ar 11.85739 16.92503 0.92695
Ar 11.34511 20.41816 2.56720
Ar 14.24752 17.80250 3.70162
Ar 14.71611 20.57533 0.57527
Ar 11.10505 18.14084 5.28273
Ar 11.52541 19.78492 8.19246
Ar 15.82747 17.60222 8.65120
Ar 14.28769 20.31304 6.11314
Ar 11.94308 17.76255 11.21342
Ar 11.26732 20.44581 13.74226
Ar 14.85087 16.51695 14.15325
Ar 14.87356 20.55631 11.68150
Ar 11.77206 17.71377 16.77569
Ar 11.47068 19.92212 21.83559
Ar 14.38048 18.01066 20.42763
Ar 14.10299 20.66073 15.66249
Ar 17.22972 0.20927 0.10239
Ar 17.24100 3.37669 2.06576
Ar 20.94954 0.60715 1.21025
Ar 18.75454 3.59928 21.49181
Ar 19.31309 1.09969 5.08210
Ar 17.03470 3.06700 7.38825
Ar 20.56915 1.95877 8.33779
Ar 20.54368 5.22639 4.70691
Ar 17.76693 0.47237 10.58292
Ar 17.20257 3.09791 14.50275
Ar 20.33219 22.68956 14.13214
Ar 20.50155 3.25703 12.56361
Ar 16.96398 0.03260 17.92509
Ar 15.12357 2.27148 21.13442
Ar 19.66214 22.52312 20.64212
Ar 19.41355 2.19608 17.20369
Ar 16.06514 6.22388 22.66025
Ar 18.05060 9.14415 1.26170
Ar 19.43146 5.93202 1.40110
Ar 19.15129 7.57529 20.50017
Ar 15.58442 6.84537 4.77609
Ar 17.60285 7.34153 8.12089
Ar 21.08135 6.24477 8.06915
Ar 19.81376 8.56763 5.12013
Ar 17.15434 4.66222 11.02039
Ar 17.19217 6.81850 14.00178
Ar 20.25827 5.39240 15.81730
Ar 20.35440 7.11154 11.80812
Ar 17.05627 5.47717 17.75191
Ar 15.95955 9.27943 20.00413
Ar 21.22802 4.86386 19.12611
Ar 18.66521 8.49302 17.05970
Ar 16.24372 11.84156 22.50880
Ar 17.09338 13.54360 3.06475
Ar 21.47974 11.49395 1.57883
Ar 19.56710 14.36663 22.60014
Ar 17.12658 10.53429 6.64728
Ar 17.87932 13.22126 9.04089
Ar 20.97732 9.71083 8.89474
Ar 19.89582 12.13778 5.12094
Ar 16.90154 9.73097 11.12974
Ar 16.21656 12.95266 13.31804
Ar 18.87788 11.02435 14.10584
Ar 19.96112 13.91535 12.76867
Ar 17.00609 11.67660 17.42386
Ar 16.24968 14.54845 19.40398
Ar 19.52631 11.14280 20.41526
Ar 19.79641 13.74967 17.61738
Ar 16.72877 15.82110 0.09277
Ar 17.61866 20.63278 3.44327
Ar 21.14342 14.74981 3.02892
Ar 20.34720 18.20791 0.79194
Ar 18.14882 15.38567 6.00586
Ar 17.52520 21.38004 7.27662
Ar 19.73171 18.03286 8.42116
Ar 19.69605 18.57142 4.94982
Ar 17.83728 16.31547 10.99946
Ar 17.58047 19.71790 13.62976
Ar 18.83708 16.24782 15.01330
Ar 20.93711 20.93737 11.18025
Ar 16.39000 17.76693 17.66931
Ar 17.69584 19.48235 21.36059
Ar 19.54787 16.82362 20.06422
Ar 19.51704 19.99062 17.50349
256
frame 55
Ar 0.97815 0.64918 21.77260
Ar 22.31264 3.88231 22.81630
Ar 3.49934 0.11227 3.61998
Ar 2.32584 2.41139 1.30578
Ar 0.15740 2.07071 4.77444
Ar 1.41253 3.41949 9.53095
Ar 2.35537 1.27779 7.41500
Ar 4.31076 3.43893 4.77692
Ar 1.27207 22.77551 10.74872
Ar 0.05970 2.45353 15.25173
Ar 1.46621 21.55457 14.37548
Ar 3.55043 2.06136 13.35832
Ar 22.46210 22.33863 17.70991
Ar 2.88850 3.92164 20.62132
Ar 3.49030 21.37416 19.89990
Ar 3.12543 2.20564 17.23088
Ar 22.76806 6.98991 21.25209
Ar 22.37391 8.17014 2.69513
Ar 3.64428 7.38661 1.01143
Ar 5.13427 10.01062 21.58782
Ar 1.47726 5.30825 3.77292
Ar 1.08604 6.96715 9.39837
Ar 4.66602 6.02168 7.13101
Ar 2.27568 9.06734 5.15743
Ar 1.13264 5.19265 12.90642
Ar 21.95567 8.13187 15.17480
Ar 4.50306 7.04999 15.64996
Ar 2.62733 8.39181 12.71906
Ar 1.36709 5.48642 16.91762
Ar 22.28214 8.88197 18.42154
Ar 3.08750 7.81634 19.71415
Ar 2.90936 10.11200 16.42807
Ar 1.65099 10.79112 0.36353
Ar 2.14737 13.96748 3.00715
Ar 4.34997 10.88339 2.33335
Ar 3.45622 13.50087 22.56471
Ar 0.38559 12.21113 5.71682
Ar 22.16973 13.20451 9.24810
Ar 1.62235 10.54212 8.75606
Ar 3.16559 14.36947 7.10379
Ar 21.97069 10.71002 13.01020
Ar 22.71744 15.38709 14.45116
Ar 2.89188 11.95452 13.41466
Ar 1.53929 14.51164 11.39791
Ar 22.52426 12.01628 16.01911
Ar 22.62021 14.69558 20.17938
Ar 1.64511 11.37051 19.52265
Ar 1.93330 14.97650 17.33749
Ar 0.92840 15.91167 0.36706
Ar 0.18314 20.76460 3.97599
Ar 1.75944 17.47993 3.99550
Ar 1.85065 19.50650 0.49582
Ar 21.57221 15.53761 6.38705
Ar 21.50698 20.77592 7.52058
Ar 1.50436 16.87396 8.66317
Ar 2.96457 20.33349 6.33650
Ar 21.65253 16.96712 10.90222
Ar 20.94457 18.95092 14.11302
Ar 3.26365 17.38897 14.31675
Ar 1.83567 19.37547 11.81482
Ar 21.99443 17.11457 17.55275
Ar 21.50128 19.61217 20.43739
Ar 2.02701 17.42974 20.32709
Ar 1.59415 19.34460 17.64362
Ar 4.86789 22.26862 22.68393
Ar 6.36208 2.70090 1.88029
Ar 9.01952 0.33352 2.37614
Ar 8.96823 2.55929 22.27625
Ar 5.62521 22.47474 6.28489
Ar 5.59857 2.51214 8.86577
Ar 8.48585 22.62718 8.25907
Ar 7.95549 2.44335 5.26026
Ar 5.54681 22.27053 10.28830
Ar 6.86677 2.37059 14.94152
Ar 8.42592 22.19506 14.29396
Ar 8.31076 2.01338 11.46852
Ar 5.81669 22.33546 16.91803
Ar 5.76795 1.61453 19.91428
Ar 8.51119 21.55730 20.16663
Ar 9.18660 2.44343 17.90793
Ar 6.37960 5.36022 22.43425
Ar 7.56206 9.02282 1.36286
Ar 8.54575 6.55913 4.63122
Ar 9.39298 10.43071 21.69115
Ar 5.43620 7.50038 4.14398
Ar 4.50844 8.80392 9.45148
Ar 7.14762 5.98080 9.58289
Ar 8.21321 9.01140 7.35143
Ar 4.13178 5.60309 10.96033
Ar 5.71626 10.01898 12.65420
Ar 7.32296 5.71201 12.97590
Ar 8.92431 8.50351 11.79586
Ar 5.83422 4.31638 17.73389
Ar 7.94550 7.47302 19.99352
Ar 10.62060 5.18904 20.50246
Ar 7.75847 7.75752 15.96163
Ar 7.13610 12.95314 0.49377
Ar 5.43944 13.62120 3.78774
Ar 7.96855 10.94435 4.16276
Ar 10.44800 14.09630 2.00270
Ar 5.18924 11.22019 6.66435
Ar 6.54340 14.79975 8.24154
Ar 9.77602 12.77648 8.49443
Ar 9.16047 14.58660 5.52697
Ar 6.66526 13.34016 11.54921
Ar 5.24435 14.50423 14.53110
Ar 8.08041 11.73495 14.69342
Ar 9.61787 15.50658 11.15097
Ar 5.51100 12.53096 17.81263
Ar 6.11003 14.76081 20.15531
Ar 9.15934 10.69883 18.08697
Ar 9.11296 14.48722 17.57550
Ar 4.21914 16.53570 1.50892
Ar 5.57874 20.02032 2.71378
Ar 7.84658 16.53426 2.67858
Ar 8.18771 19.49883 0.56965
Ar 5.62411 16.95178 5.33746
Ar 5.53124 19.38240 8.47108
Ar 8.65473 17.68978 8.39122
Ar 7.99522 19.89753 5.04772
Ar 4.94911 16.97570 10.98896
Ar 5.13670 20.47378 14.00043
Ar 8.05693 17.56122 14.04106
Ar 8.31992 19.97843 11.20605
Ar 5.76553 16.89864 17.20425
Ar 5.30448 18.76682 21.03846
Ar 9.22657 17.20837 20.90084
Ar 8.47476 19.46806 17.20823
Ar 12.24485 0.41047 0.33468
Ar 11.15464 3.13324 3.54716
Ar 14.47711 0.12590 2.95767
Ar 12.81754 4.02436 0.10492
Ar 11.01872 22.41159 5.46545
Ar 10.61751 2.71786 7.81062
Ar 14.06995 0.62996 7.98225
Ar 14.46568 3.63113 5.09086
Ar 11.21556 22.68069 10.85725
Ar 10.90610 1.88422 14.24909
Ar 14.74973 0.52580 13.59346
Ar 13.37236 3.37371 10.88137
Ar 10.97090 21.83626 16.94375
Ar 11.94451 1.44112 19.89472
Ar 13.91527 21.18178 19.15820
Ar 14.07901 2.07548 16.99027
Ar 9.77539 5.99709 1.29652
Ar 10.76100 10.35447 2.41815
Ar 12.09257 7.32975 4.21147
Ar 12.94729 8.30706 0.07692
Ar 10.48682 6.40339 7.70182
Ar 11.03366 9.67027 9.00604
Ar 14.06350 5.40367 8.13881
Ar 13.97322 8.68594 7.23734
Ar 10.22603 5.52138 11.14122
Ar 11.13775 8.18863 14.83169
Ar 13.56891 5.18051 14.13087
Ar 13.61693 7.82673 11.34904
Ar 10.78580 5.10685 16.73016
Ar 11.31557 8.48376 19.31849
Ar 13.94743 5.42475 19.79779
Ar 14.18823 7.93287 17.30721
Ar 13.12422 11.58466 22.75220
Ar 13.66444 13.86037 3.88323
Ar 14.83850 10.22269 2.85954
Ar 13.37854 14.90958 21.63798
Ar 11.67445 11.09712 5.57947
Ar 11.56788 15.86275 8.07495
Ar 14.11647 11.42647 9.57163
Ar 14.80825 14.16175 7.32930
Ar 11.87871 12.35377 12.15309
Ar 11.03204 15.35412 14.47024
Ar 14.75545 9.99684 14.37900
Ar 14.27458 14.87756 10.70118
Ar 11.72124 11.81563 15.80582
Ar 10.35020 13.85434 20.71560
Ar 12.62805 11.58139 19.09627
Ar 13.14638 14.88804 18.00606
Ar 11.89633 17.03412 0.98937
Ar 11.31458 20.37834 2.62790
Ar 14.31337 17.82001 3.69895
Ar 14.70702 20.64717 0.48058
Ar 11.02499 18.04040 5.40820
Ar 11.52250 19.70171 8.23147
Ar 15.83616 17.65077 8.67212
Ar 14.23722 20.42204 6.09672
Ar 12.02338 17.84088 11.18708
Ar 11.24313 20.41868 13.68081
Ar 14.92395 16.54303 14.18375
Ar 14.85701 20.55621 11.56129
Ar 11.72176 17.75190 16.82265
Ar 11.51424 20.03496 21.77263
Ar 14.42961 18.06022 20.47232
Ar 14.17613 20.71500 15.66055
Ar 17.28037 0.25270 0.20483
Ar 17.27720 3.39496 2.04704
Ar 20.98748 0.56974 1.18370
Ar 18.76959 3.42972 21.53189
Ar 19.27066 1.06249 5.10700
Ar 17.01296 3.03593 7.42361
Ar 20.38914 1.94180 8.36610
Ar 20.58883 5.16761 4.66489
Ar 17.88465 0.49987 10.58307
Ar 17.18221 3.05360 14.53038
Ar 20.24274 22.70207 14.18788
Ar 20.53192 3.21003 12.51357
Ar 16.96672 0.00374 17.98764
Ar 15.17983 2.27437 21.04144
Ar 19.75543 22.60621 20.72458
Ar 19.55047 2.26569 17.26088
Ar 16.06429 6.21109 22.74222
Ar 18.10292 9.19619 1.11704
Ar 19.35312 5.93707 1.32037
Ar 19.19766 7.62827 20.49752
Ar 15.59682 6.98885 4.71212
Ar 17.72420 7.38885 8.09795
Ar 21.15377 6.14275 8.08531
Ar 19.88652 8.55067 4.98483
Ar 17.16842 4.68487 11.06344
Ar 17.14891 6.74048 14.04663
Ar 20.12296 5.43485 15.86160
Ar 20.34759 7.01849 11.82220
Ar 17.06097 5.45398 17.72302
Ar 15.97772 9.16845 20.04307
Ar 21.16903 4.95164 19.15108
Ar 18.63075 8.50982 17.01364
Ar 16.28178 11.73923 22.44158
Ar 17.06431 13.47625 3.09439
Ar 21.47670 11.63973 1.53501
Ar 19.57905 14.34238 22.69484
Ar 17.15882 10.51693 6.66238
Ar 17.89016 13.33668 9.06559
Ar 20.96473 9.65791 8.80764
Ar 19.89161 12.17998 5.09457
Ar 16.98633 9.68743 11.23291
Ar 16.26714 12.89035 13.31262
Ar 18.78062 10.98925 14.11017
Ar 20.04669 13.80942 12.72424
Ar 17.01846 11.67562 17.41133
Ar 16.31964 14.63173 19.39237
Ar 19.66160 11.10772 20.36824
Ar 19.76757 13.70300 17.66893
Ar 16.68245 15.91535 0.15989
Ar 17.58772 20.72348 3.39995
Ar 21.20750 14.74329 2.96474
Ar 20.24629 18.25195 0.83367
Ar 18.15537 15.32385 6.00009
Ar 17.50286 21.33038 7.32648
Ar 19.78288 18.13910 8.45701
Ar 19.61791 18.54679 4.93781
Ar 17.95701 16.26805 10.89538
Ar 17.53159 19.73451 13.64259
Ar 18.90888 16.26857 14.98967
Ar 20.93724 20.91410 11.16225
Ar 16.44986 17.73738 17.60256
Ar 17.61515 19.59927 21.38683
Ar 19.49134 16.80532 20.05061
Ar 19.62448 20.00675 17.61111
256
frame 56
Ar 0.95308 0.47118 21.66747
Ar 22.19840 3.91726 22.73893
Ar 3.42665 0.13309 3.57462
Ar 2.43727 2.60976 1.33063
Ar 0.14553 2.09242 4.74257
Ar 1.39622 3.53299 9.55211
Ar 2.42250 1.27421 7.42432
Ar 4.32901 3.46162 4.82791
Ar 1.29021 22.77752 10.72361
Ar 22.80212 2.32713 15.25385
Ar 1.40845 21.52208 14.44824
Ar 3.54353 2.11613 13.47157
Ar 22.33030 22.26740 17.71128
Ar 2.98572 3.97272 20.64019
Ar 3.39973 21.40672 19.89625
Ar 3.19494 2.13810 17.21747
Ar 22.71937 7.06188 21.28573
Ar 22.39833 8.25464 2.64359
Ar 3.69653 7.48657 0.95356
Ar 5.31310 10.10526 21.52014
Ar 1.59514 5.39933 3.70569
Ar 1.13282 6.95063 9.47678
Ar 4.66428 6.06181 7.10235
Ar 2.24680 9.14789 5.14806
Ar 1.07931 5.14141 13.01947
Ar 21.92943 8.07059 15.14995
Ar 4.39442 7.04249 15.69684
Ar 2.64569 8.35334 12.84655
Ar 1.32693 5.48921 16.86666
Ar 22.26839 8.90322 18.52191
Ar 3.18395 7.61029 19.69627
Ar 2.96564 10.10384 16.42048
Ar 1.57530 10.78152 0.37550
Ar 2.10290 13.94341 3.04331
Ar 4.34412 10.86362 2.33342
Ar 3.51242 13.54899 22.45003
Ar 0.30022 12.15152 5.74144
Ar 22.05381 13.21275 9.10002
Ar 1.55659 10.52703 8.83246
Ar 3.14912 14.42033 7.06206
Ar 21.99119 10.68704 13.00935
Ar 22.75728 15.46185 14.45309
Ar 2.84953 11.97438 13.36297
Ar 1.50034 14.57681 11.46531
Ar 22.58496 11.86964 15.94035
Ar 22.57728 14.64812 20.14970
Ar 1.63200 11.48383 19.45910
Ar 1.90882 15.06536 17.35721
Ar 0.76338 15.89796 0.27187
Ar 0.09378 20.77466 4.04242
Ar 1.79716 17.50486 3.93393
Ar 1.87162 19.61541 0.50120
Ar 21.53844 15.65096 6.40566
Ar 21.54187 20.82885 7.37765
Ar 1.52003 16.94164 8.57508
Ar 2.94041 20.40908 6.33851
Ar 21.63967 16.91061 10.98981
Ar 21.09000 18.93227 14.11504
Ar 3.20053 17.33296 14.25780
Ar 1.75925 19.32626 11.78705
Ar 21.97257 17.12620 17.57168
Ar 21.46449 19.60690 20.56866
Ar 2.00821 17.39578 20.40255
Ar 1.66409 19.32732 17.68948
Ar 4.84553 22.25811 22.66505
Ar 6.42370 2.58508 1.78407
Ar 9.06107 0.33264 2.31441
Ar 8.95512 2.48615 22.23041
Ar 5.63911 22.39475 6.36599
Ar 5.63645 2.48579 9.01087
Ar 8.51832 22.61299 8.17932
Ar 7.98391 2.51457 5.23171
Ar 5.48674 22.27534 10.16724
Ar 6.81306 2.30753 14.95386
Ar 8.47386 22.21012 14.18653
Ar 8.31383 2.00824 11.49618
Ar 5.71251 22.25645 16.86768
Ar 5.84091 1.51741 19.93945
Ar 8.42365 21.58410 20.11594
Ar 9.15585 2.46853 17.96471
Ar 6.40691 5.37371 22.43928
Ar 7.55390 9.11748 1.25979
Ar 8.50871 6.65075 4.75809
Ar 9.31671 10.32579 21.62492
Ar 5.38691 7.43701 4.05783
Ar 4.53171 8.76346 9.53725
Ar 7.18746 6.03464 9.50488
Ar 8.16939 9.02520 7.46672
Ar 4.18706 5.56328 10.98618
Ar 5.76840 9.91955 12.71551
Ar 7.33151 5.79143 12.95831
Ar 8.94145 8.48191 11.83255
Ar 5.85568 4.29568 17.82564
Ar 7.98962 7.40146 19.96223
Ar 10.62775 5.12973 20.47212
Ar 7.80195 7.64425 16.02992
Ar 7.27795 13.04996 0.56613
Ar 5.50999 13.68803 3.78426
Ar 7.92376 10.91340 4.16038
Ar 10.51670 14.05603 1.91418
Ar 5.14615 11.21430 6.58251
Ar 6.60405 14.73502 8.25980
Ar 9.66034 12.66529 8.56584
Ar 9.20419 14.61896 5.60203
Ar 6.58671 13.41054 11.52751
Ar 5.26503 14.40406 14.53538
Ar 8.11472 11.73528 14.70895
Ar 9.66019 15.46595 11.12501
Ar 5.43191 12.49046 17.94233
Ar 6.07917 14.76603 20.19121
Ar 9.16531 10.83994 18.02955
Ar 9.10985 14.62948 17.69480
Ar 4.32997 16.56302 1.51776
Ar 5.55785 20.13256 2.62930
Ar 7.89759 16.43685 2.62619
Ar 8.26929 19.69932 0.49406
Ar 5.71283 16.97181 5.22989
Ar 5.44581 19.40210 8.56537
Ar 8.72474 17.64909 8.39406
Ar 8.08145 19.85427 4.97894
Ar 4.99408 16.92138 11.05021
Ar 5.21828 20.43784 14.04000
Ar 7.99134 17.57456 13.98952
Ar 8.35802 19.97235 11.22465
Ar 5.79164 16.96942 17.30091
Ar 5.26985 18.75823 21.09116
Ar 9.14523 17.31644 20.90252
Ar 8.42219 19.36519 17.12577
Ar 12.25887 0.45955 0.28535
Ar 11.12299 3.19569 3.50271
Ar 14.58595 0.06072 3.01214
Ar 12.80463 4.07857 0.02848
Ar 10.98879 22.40629 5.62698
Ar 10.59349 2.72346 7.70630
Ar 13.98808 0.67316 7.91324
Ar 14.45676 3.62417 5.11438
Ar 11.15142 22.77846 10.75054
Ar 10.89323 1.89745 14.23260
Ar 14.68798 0.54082 13.50438
Ar 13.32233 3.30284 10.85516
Ar 10.94552 21.81020 16.98921
Ar 11.97695 1.36806 19.75113
Ar 14.06375 21.12197 19.22838
Ar 14.02125 2.04155 16.97376
Ar 9.61582 5.95464 1.24289
Ar 10.75740 10.40593 2.44214
Ar 12.10619 7.41386 4.19156
Ar 12.86226 8.24128 0.07428
Ar 10.38957 6.28712 7.73767
Ar 10.95802 9.80187 9.00873
Ar 14.01476 5.30253 8.02798
Ar 13.98003 8.72511 7.34725
Ar 10.37594 5.50680 11.23893
Ar 11.17278 8.13396 14.90476
Ar 13.56109 5.22451 14.09278
Ar 13.65311 7.82962 11.48534
Ar 10.75020 5.14144 16.74965
Ar 11.34839 8.47830 19.38350
Ar 14.01823 5.44981 19.79661
Ar 14.20006 7.94447 17.39128
Ar 13.11192 11.55515 22.66545
Ar 13.59905 13.81773 3.90468
Ar 14.68143 10.17882 2.89653
Ar 13.31140 14.94963 21.72462
Ar 11.60321 11.10276 5.68398
Ar 11.46427 15.85444 8.12066
Ar 14.13178 11.43408 9.63339
Ar 14.76755 14.08707 7.34114
Ar 11.82202 12.40502 12.17387
Ar 11.03766 15.35499 14.53597
Ar 14.66853 9.93456 14.36420
Ar 14.30622 14.92584 10.64197
Ar 11.87481 11.78869 15.53129
Ar 10.41940 13.76938 20.76572
Ar 12.64057 11.44997 19.20367
Ar 13.15243 14.79940 18.01686
Ar 11.92828 17.18227 1.06570
Ar 11.29448 20.32599 2.67802
Ar 14.38780 17.82795 3.68436
Ar 14.69909 20.67921 0.37279
Ar 10.93949 17.91681 5.47881
Ar 11.52513 19.66553 8.31136
Ar 15.81927 17.71947 8.66394
Ar 14.19037 20.53081 6.06785
Ar 12.13582 17.94081 11.17651
Ar 11.23712 20.36397 13.60697
Ar 14.99568 16.57225 14.21393
Ar 14.82119 20.54058 11.41202
Ar 11.66959 17.83942 16.87739
Ar 11.54829 20.14353 21.69381
Ar 14.47277 18.08971 20.53285
Ar 14.26738 20.73764 15.66922
Ar 17.32553 0.29192 0.33339
Ar 17.28498 3.38421 2.05191
Ar 21.02029 0.53350 1.17902
Ar 18.78301 3.25862 21.56039
Ar 19.22566 1.02115 5.11347
Ar 16.99957 3.00599 7.47341
Ar 20.23064 1.92967 8.40457
Ar 20.63603 5.07926 4.61725
Ar 17.99386 0.52639 10.59380
Ar 17.16437 3.01175 14.56003
Ar 20.14890 22.71741 14.25843
Ar 20.55852 3.16739 12.45663
Ar 16.96383 22.78586 18.05386
Ar 15.25660 2.26894 20.93559
Ar 19.86071 22.70411 20.77236
Ar 19.69932 2.32421 17.32377
Ar 16.05705 6.19972 22.81717
Ar 18.16557 9.25180 0.98163
Ar 19.31856 5.96245 1.23286
Ar 19.23843 7.66171 20.50907
Ar 15.64438 7.13048 4.63175
Ar 17.83877 7.41805 8.08453
Ar 21.14198 5.99961 8.06531
Ar 19.93121 8.54936 4.87302
Ar 17.18084 4.70333 11.09528
Ar 17.09954 6.67727 14.09379
Ar 19.97969 5.44687 15.87763
Ar 20.34160 6.92832 11.83631
Ar 17.05312 5.41160 17.70587
Ar 15.99216 9.05343 20.08933
Ar 21.10501 5.00872 19.16256
Ar 18.60393 8.54396 16.96471
Ar 16.40938 11.67784 22.36138
Ar 17.04907 13.40055 3.10836
Ar 21.43340 11.76958 1.49912
Ar 19.62821 14.28681 22.77149
Ar 17.17470 10.51582 6.67409
Ar 17.90808 13.42474 9.09139
Ar 20.93654 9.61109 8.72126
Ar 19.86323 12.22293 5.06678
Ar 17.07348 9.63785 11.32760
Ar 16.27599 12.89573 13.27952
Ar 18.69761 10.88647 14.16623
Ar 20.14124 13.71790 12.64704
Ar 16.99993 11.66127 17.39180
Ar 16.41336 14.70812 19.39986
Ar 19.79728 11.08806 20.32357
Ar 19.75745 13.68159 17.72405
Ar 16.59123 16.04145 0.23173
Ar 17.52821 20.84232 3.33437
Ar 21.27711 14.77329 2.90975
Ar 20.14817 18.28901 0.88302
Ar 18.13727 15.27030 5.99785
Ar 17.49131 21.28051 7.38045
Ar 19.77430 18.22384 8.47484
Ar 19.57017 18.50056 4.92858
Ar 18.08849 16.22293 10.84268
Ar 17.48303 19.74968 13.66757
Ar 18.96253 16.28551 14.98041
Ar 20.93372 20.88765 11.12800
Ar 16.51849 17.71932 17.51730
Ar 17.53801 19.72181 21.40682
Ar 19.41249 16.76930 20.03344
Ar 19.70633 20.02387 17.69332
256
frame 57
Ar 0.91954 0.28942 21.55050
Ar 22.08238 3.94079 22.66721
Ar 3.34755 0.14178 3.53152
Ar 2.56049 2.82400 1.35807
Ar 0.12991 2.10875 4.70199
Ar 1.35739 3.66524 9.61630
Ar 2.51712 1.22007 7.39000
Ar 4.35568 3.46368 4.87342
Ar 1.31113 22.78627 10.70088
Ar 22.72600 2.20059 15.25730
Ar 1.34720 21.50541 14.53879
Ar 3.52590 2.16925 13.57389
Ar 22.21461 22.21860 17.71641
Ar 3.08004 4.02287 20.65942
Ar 3.27885 21.44176 19.82422
Ar 3.24654 2.05667 17.20435
Ar 22.70430 7.15112 21.38060
Ar 22.45015 8.33747 2.55443
Ar 3.73234 7.58443 0.88156
Ar 5.48549 10.21113 21.44059
Ar 1.70822 5.50163 3.63632
Ar 1.22491 6.97913 9.58205
Ar 4.64195 6.10145 7.09697
Ar 2.22157 9.22084 5.14018
Ar 1.01525 5.08440 13.13522
Ar 21.92939 8.01190 15.11613
Ar 4.28483 7.00877 15.73769
Ar 2.63806 8.31973 12.96855
Ar 1.27992 5.49272 16.82290
Ar 22.24378 8.93489 18.59722
Ar 3.28311 7.40751 19.67046
Ar 3.01522 10.09986 16.41711
Ar 1.50315 10.73407 0.35666
Ar 2.04298 13.90806 3.08319
Ar 4.35668 10.81878 2.34364
Ar 3.58013 13.60346 22.32464
Ar 0.25297 12.09548 5.76821
Ar 21.91564 13.22862 8.95421
Ar 1.50283 10.52029 8.90852
Ar 3.14307 14.44159 6.99664
Ar 22.02593 10.64894 12.89926
Ar 22.78473 15.54100 14.45679
Ar 2.80038 11.99222 13.31303
Ar 1.48387 14.64978 11.52023
Ar 22.65646 11.75590 15.93586
Ar 22.50535 14.56792 20.10269
Ar 1.63070 11.61310 19.40767
Ar 1.92629 15.13662 17.37499
Ar 0.58231 15.88762 0.24471
Ar 0.00031 20.79303 4.09136
Ar 1.83110 17.52937 3.88013
Ar 1.89537 19.73080 0.51114
Ar 21.53388 15.76724 6.43040
Ar 21.59867 20.92289 7.22855
Ar 1.52560 17.04629 8.49737
Ar 2.87255 20.46006 6.33317
Ar 21.63964 16.84719 11.10633
Ar 21.25619 18.92238 14.12823
Ar 3.13419 17.27166 14.22037
Ar 1.67797 19.26332 11.72803
Ar 21.90412 17.12928 17.58225
Ar 21.47213 19.59436 20.72253
Ar 2.01230 17.36171 20.46841
Ar 1.75682 19.34314 17.68527
Ar 4.85159 22.27057 22.71348
Ar 6.45287 2.46711 1.70622
Ar 9.10558 0.31249 2.26056
Ar 8.95695 2.40736 22.16442
Ar 5.66886 22.34230 6.43190
Ar 5.67479 2.52989 9.12365
Ar 8.56374 22.59089 8.12062
Ar 8.00017 2.58366 5.20667
Ar 5.41373 22.26658 10.10947
Ar 6.76118 2.27052 14.96643
Ar 8.49203 22.21022 14.08261
Ar 8.31038 2.01337 11.52080
Ar 5.61522 22.18294 16.84903
Ar 5.91974 1.41794 19.97337
Ar 8.33562 21.61743 20.06402
Ar 9.09178 2.45647 18.03134
Ar 6.42366 5.38973 22.43494
Ar 7.50637 9.16295 1.19303
Ar 8.51238 6.72375 4.87996
Ar 9.27742 10.25619 21.53066
Ar 5.30087 7.39984 3.94594
Ar 4.56974 8.73262 9.61459
Ar 7.26329 6.08973 9.40201
Ar 8.06372 9.04510 7.55946
Ar 4.21811 5.49844 11.03339
Ar 5.82991 9.81761 12.78419
Ar 7.30277 5.82731 12.98590
Ar 8.97069 8.53286 11.86082
Ar 5.89072 4.31292 17.91964
Ar 8.00971 7.33789 19.91785
Ar 10.60643 5.06452 20.42571
Ar 7.85976 7.54086 16.11138
Ar 7.41431 13.14120 0.63634
Ar 5.60780 13.78098 3.80016
Ar 7.85370 10.90093 4.19845
Ar 10.58835 13.99929 1.82451
Ar 5.09833 11.20656 6.50398
Ar 6.65944 14.67272 8.26518
Ar 9.50448 12.63065 8.63583
Ar 9.23972 14.64665 5.65798
Ar 6.51646 13.46562 11.49603
Ar 5.28648 14.30951 14.56667
Ar 8.15566 11.74422 14.72194
Ar 9.68101 15.40963 11.11354
Ar 5.34270 12.40657 18.02769
Ar 6.06976 14.81900 20.27431
Ar 9.15442 10.99060 17.96752
Ar 9.09530 14.78072 17.79094
Ar 4.44980 16.59883 1.51943
Ar 5.50601 20.23337 2.55210
Ar 7.96404 16.34870 2.55262
Ar 8.35713 19.90827 0.42637
Ar 5.78134 17.00612 5.14877
Ar 5.37392 19.37210 8.63225
Ar 8.72817 17.63349 8.39360
Ar 8.17441 19.82270 4.92488
Ar 5.04000 16.85709 11.11990
Ar 5.29444 20.38408 14.04673
Ar 7.92141 17.58101 13.93490
Ar 8.39626 19.96964 11.23532
Ar 5.80415 17.03641 17.39437
Ar 5.25980 18.73185 21.15463
Ar 9.06555 17.41273 20.88865
Ar 8.35813 19.26669 17.04603
Ar 12.26319 0.52401 0.25306
Ar 11.09573 3.26081 3.45456
Ar 14.68605 0.02172 3.09697
Ar 12.80108 4.12802 22.81713
Ar 10.96518 22.40691 5.78152
Ar 10.58571 2.72682 7.61298
Ar 13.90313 0.73274 7.85621
Ar 14.44084 3.59650 5.09674
Ar 11.10292 0.04706 10.64296
Ar 10.89929 1.92616 14.22022
Ar 14.62120 0.58740 13.40294
Ar 13.27277 3.21621 10.83907
Ar 10.93024 21.80103 17.04211
Ar 11.99790 1.29531 19.61345
Ar 14.20130 21.10176 19.29358
Ar 13.96949 2.01434 16.94310
Ar 9.46682 5.91387 1.18922
Ar 10.78310 10.44427 2.42027
Ar 12.11209 7.49483 4.17144
Ar 12.77048 8.12443 0.07166
Ar 10.31649 6.17312 7.77122
Ar 10.96402 9.85255 9.06588
Ar 13.96586 5.20956 7.94109
Ar 13.98604 8.77171 7.45295
Ar 10.56501 5.45173 11.33599
Ar 11.22091 8.09439 14.96641
Ar 13.55454 5.26214 14.06269
Ar 13.68502 7.83274 11.60933
Ar 10.73668 5.19952 16.75974
Ar 11.37650 8.39779 19.45273
Ar 14.10111 5.47540 19.79124
Ar 14.21005 7.95819 17.42909
Ar 13.04690 11.56076 22.59793
Ar 13.52124 13.77779 3.92124
Ar 14.52413 10.14148 2.93546
Ar 13.30618 14.99047 21.81334
Ar 11.53803 11.11818 5.80688
Ar 11.43335 15.79972 8.17887
Ar 14.16279 11.43634 9.70277
Ar 14.72953 14.01451 7.32182
Ar 11.75501 12.46180 12.16736
Ar 11.04561 15.34202 14.58878
Ar 14.59241 9.85626 14.34751
Ar 14.33568 14.98448 10.61273
Ar 12.01910 11.76627 15.29564
Ar 10.43330 13.66185 20.82561
Ar 12.69385 11.36435 19.29223
Ar 13.14986 14.71099 18.01649
Ar 11.94903 17.35166 1.14931
Ar 11.28495 20.27608 2.72730
Ar 14.46890 17.83070 3.66573
Ar 14.68722 20.68529 0.26749
Ar 10.86440 17.78566 5.48914
Ar 11.53783 19.68303 8.40322
Ar 15.78717 17.80086 8.63772
Ar 14.14654 20.62691 6.02406
Ar 12.26649 18.02789 11.18813
Ar 11.25700 20.29294 13.53485
Ar 15.06460 16.60312 14.24110
Ar 14.77613 20.51674 11.24258
Ar 11.62741 17.95410 16.94279
Ar 11.56475 20.24090 21.59974
Ar 14.51246 18.07433 20.60533
Ar 14.36529 20.73478 15.68726
Ar 17.36565 0.31961 0.47141
Ar 17.26780 3.35346 2.08552
Ar 21.05277 0.50054 1.20376
Ar 18.79467 3.09954 21.57582
Ar 19.17940 0.97632 5.10224
Ar 16.98507 2.97943 7.53364
Ar 20.11548 1.92819 8.44192
Ar 20.68264 4.97305 4.56061
Ar 18.08029 0.54314 10.62868
Ar 17.15114 2.96920 14.59297
Ar 20.05014 22.72924 14.33653
Ar 20.58030 3.12763 12.39348
Ar 16.97134 22.74506 18.11806
Ar 15.34431 2.25286 20.82372
Ar 19.96809 22.80652 20.78309
Ar 19.84124 2.35165 17.39401
Ar 16.03553 6.19215 0.05846
Ar 18.24974 9.29350 0.86959
Ar 19.33179 6.00324 1.14468
Ar 19.26672 7.67661 20.53218
Ar 15.71858 7.26214 4.54728
Ar 17.94254 7.42774 8.08121
Ar 21.08753 5.82800 8.02810
Ar 19.93887 8.55982 4.79292
Ar 17.19124 4.71576 11.11426
Ar 17.04030 6.63382 14.14016
Ar 19.84665 5.43291 15.85783
Ar 20.33619 6.84255 11.84966
Ar 17.02573 5.35486 17.70689
Ar 16.00480 8.93700 20.14639
Ar 21.04365 5.04074 19.16441
Ar 18.58374 8.58506 16.92411
Ar 16.56850 11.67594 22.26518
Ar 17.03929 13.31834 3.10393
Ar 21.35949 11.85202 1.47154
Ar 19.66640 14.23241 22.81130
Ar 17.17568 10.53353 6.68158
Ar 17.92905 13.45920 9.10388
Ar 20.89338 9.56677 8.63454
Ar 19.80738 12.26348 5.03468
Ar 17.15588 9.57898 11.40389
Ar 16.24409 12.95701 13.22201
Ar 18.64982 10.73853 14.26293
Ar 20.23620 13.63868 12.55252
Ar 16.94736 11.63932 17.37158
Ar 16.51517 14.77182 19.42656
Ar 19.93228 11.08818 20.28504
Ar 19.77044 13.68276 17.77537
Ar 16.48840 16.18114 0.30610
Ar 17.46400 20.96481 3.26109
Ar 21.35245 14.85775 2.89390
Ar 20.05025 18.31819 0.94104
Ar 18.09253 15.22867 5.99824
Ar 17.48882 21.23120 7.43736
Ar 19.72619 18.29309 8.48567
Ar 19.53695 18.44863 4.91248
Ar 18.21554 16.20650 10.84608
Ar 17.44124 19.76236 13.70121
Ar 19.00347 16.29339 14.97806
Ar 20.92702 20.86081 11.08230
Ar 16.59001 17.71767 17.42264
Ar 17.48429 19.84527 21.41272
Ar 19.31948 16.72690 20.02006
Ar 19.74512 20.03125 17.74613
256
frame 58
Ar 0.86341 0.12818 21.44921
Ar 21.98049 3.94748 22.60444
Ar 3.26332 0.14386 3.49406
Ar 2.68547 3.03957 1.37469
Ar 0.11711 2.11696 4.65602
Ar 1.30836 3.75847 9.69160
Ar 2.61951 1.15281 7.34316
Ar 4.38932 3.44329 4.90913
Ar 1.33437 22.80084 10.68135
Ar 22.66592 2.07949 15.25968
Ar 1.28716 21.49632 14.63390
Ar 3.49247 2.22081 13.65847
Ar 22.14059 22.20573 17.72602
Ar 3.17147 4.05677 20.68111
Ar 3.18023 21.48006 19.72201
Ar 3.27958 1.97149 17.19822
Ar 22.72061 7.24608 21.52908
Ar 22.52305 8.41647 2.43479
Ar 3.74774 7.67637 0.78282
Ar 5.63831 10.32827 21.34035
Ar 1.81407 5.61705 3.57033
Ar 1.32008 7.05908 9.69532
Ar 4.60122 6.14572 7.11084
Ar 2.20277 9.27932 5.13187
Ar 0.94482 5.02582 13.24738
Ar 21.95019 7.96009 15.08053
Ar 4.20170 6.94272 15.77968
Ar 2.60325 8.29290 13.07460
Ar 1.22108 5.48935 16.79256
Ar 22.21672 8.97327 18.63033
Ar 3.38556 7.22439 19.63653
Ar 3.05717 10.10475 16.41716
Ar 1.44764 10.66788 0.31022
Ar 1.98557 13.86416 3.11962
Ar 4.38280 10.77415 2.36502
Ar 3.63250 13.64963 22.21037
Ar 0.23691 12.04616 5.79373
Ar 21.76490 13.25219 8.82650
Ar 1.46321 10.52432 8.98610
Ar 3.14569 14.44010 6.91246
Ar 22.06952 10.59203 12.71094
Ar 22.79088 15.61596 14.47132
Ar 2.75129 11.99889 13.26681
Ar 1.49152 14.72177 11.54415
Ar 22.72924 11.67061 15.98455
Ar 22.40991 14.46682 20.04211
Ar 1.64188 11.74811 19.36545
Ar 1.98146 15.19256 17.39237
Ar 0.39742 15.87969 0.27738
Ar 22.73780 20.81600 4.09335
Ar 1.86106 17.55438 3.83293
Ar 1.92134 19.84808 0.52476
Ar 21.55157 15.88371 6.45500
Ar 21.65358 21.04092 7.11057
Ar 1.52240 17.17975 8.43269
Ar 2.76854 20.48565 6.32334
Ar 21.64723 16.79284 11.22637
Ar 21.43161 18.92564 14.15297
Ar 3.07336 17.20847 14.20408
Ar 1.59322 19.19713 11.64981
Ar 21.80985 17.13369 17.58822
Ar 21.51276 19.57515 20.88634
Ar 2.03623 17.33306 20.51373
Ar 1.84843 19.35718 17.62916
Ar 4.86502 22.30431 22.78118
Ar 6.44328 2.35540 1.64826
Ar 9.15814 0.27393 2.22165
Ar 8.97546 2.32455 22.07541
Ar 5.70296 22.31325 6.46832
Ar 5.71244 2.64372 9.20208
Ar 8.60213 22.56291 8.10613
Ar 7.99972 2.64852 5.18079
Ar 5.33079 22.25418 10.11691
Ar 6.71736 2.25678 14.98552
Ar 8.48671 22.19788 13.98942
Ar 8.29970 2.03244 11.54398
Ar 5.52971 22.11747 16.86834
Ar 5.99365 1.32928 20.00823
Ar 8.25548 21.64843 20.00479
Ar 9.00447 2.42074 18.09985
Ar 6.41553 5.40115 22.41852
Ar 7.42896 9.16010 1.18267
Ar 8.53063 6.78547 4.98005
Ar 9.27721 10.22600 21.41021
Ar 5.20362 7.37642 3.82722
Ar 4.61630 8.71521 9.68197
Ar 7.34829 6.13456 9.30968
Ar 7.91978 9.07919 7.63776
Ar 4.23771 5.41535 11.09783
Ar 5.88870 9.72002 12.86444
Ar 7.25094 5.82642 13.03798
Ar 9.02310 8.62650 11.87821
Ar 5.93276 4.36033 18.01498
Ar 8.00177 7.28157 19.85941
Ar 10.56666 4.98995 20.36337
Ar 7.91599 7.44684 16.20302
Ar 7.53255 13.21864 0.69588
Ar 5.71126 13.87360 3.82387
Ar 7.77725 10.89770 4.26030
Ar 10.67555 13.94288 1.73494
Ar 5.04312 11.19827 6.43349
Ar 6.69464 14.62491 8.24737
Ar 9.31341 12.66647 8.70276
Ar 9.26086 14.65704 5.68950
Ar 6.45590 13.49618 11.46205
Ar 5.30508 14.22647 14.63049
Ar 8.20062 11.76358 14.71969
Ar 9.68339 15.35099 11.12734
Ar 5.25115 12.30094 18.08959
Ar 6.09005 14.90769 20.37578
Ar 9.14499 11.13757 17.91718
Ar 9.07186 14.94148 17.86965
Ar 4.56799 16.63810 1.51191
Ar 5.44563 20.30707 2.49994
Ar 8.05048 16.27643 2.46120
Ar 8.43970 20.12040 0.37591
Ar 5.83118 17.06102 5.09818
Ar 5.31167 19.27994 8.66550
Ar 8.66139 17.64769 8.39263
Ar 8.25589 19.81138 4.87535
Ar 5.08663 16.78726 11.19494
Ar 5.36135 20.30533 14.01310
Ar 7.84887 17.57401 13.87483
Ar 8.43159 19.96980 11.22988
Ar 5.78773 17.08681 17.48441
Ar 5.26761 18.70154 21.22402
Ar 8.98892 17.49410 20.86035
Ar 8.29701 19.19579 16.97209
Ar 12.26521 0.60221 0.23829
Ar 11.07409 3.32808 3.40240
Ar 14.74693 0.02081 3.19367
Ar 12.81159 4.16956 22.82147
Ar 10.96359 22.40663 5.89908
Ar 10.59809 2.72171 7.53515
Ar 13.81791 0.81165 7.81446
Ar 14.42556 3.54251 5.02416
Ar 11.07641 0.12902 10.54014
Ar 10.92313 1.96960 14.21263
Ar 14.54858 0.65010 13.29294
Ar 13.23272 3.11374 10.82866
Ar 10.91971 21.79738 17.09161
Ar 12.00609 1.22174 19.50725
Ar 14.31871 21.11798 19.35000
Ar 13.93522 1.99619 16.88590
Ar 9.34176 5.87748 1.14485
Ar 10.81986 10.47145 2.37284
Ar 12.11137 7.56810 4.15463
Ar 12.67450 7.98056 0.07125
Ar 10.28253 6.07889 7.80717
Ar 11.03929 9.81318 9.17108
Ar 13.91111 5.14023 7.89491
Ar 13.99612 8.80759 7.54520
Ar 10.75949 5.38498 11.43790
Ar 11.28017 8.08028 15.00997
Ar 13.54780 5.28462 14.04534
Ar 13.71072 7.83591 11.70580
Ar 10.73769 5.25458 16.77084
Ar 11.39266 8.25500 19.51408
Ar 14.18200 5.49612 19.79111
Ar 14.21772 7.97800 17.41385
Ar 12.97239 11.57950 22.57560
Ar 13.43791 13.74033 3.93323
Ar 14.36762 10.12167 2.96814
Ar 13.34387 15.03204 21.90438
Ar 11.47632 11.14239 5.92964
Ar 11.48475 15.69950 8.24757
Ar 14.21007 11.43821 9.78755
Ar 14.69532 13.94390 7.27538
Ar 11.67465 12.53334 12.08397
Ar 11.05482 15.32357 14.63359
Ar 14.55984 9.76012 14.32658
Ar 14.36387 15.05117 10.61094
Ar 12.13643 11.75275 15.16144
Ar 10.39898 13.54278 20.88861
Ar 12.78281 11.32208 19.32788
Ar 13.14102 14.62875 18.00799
Ar 11.96147 17.50676 1.22031
Ar 11.28343 20.25442 2.79054
Ar 14.55788 17.83101 3.64843
Ar 14.66065 20.68620 0.19049
Ar 10.81824 17.66206 5.45356
Ar 11.55380 19.74777 8.47428
Ar 15.74854 17.88717 8.60141
Ar 14.10791 20.69967 5.96766
Ar 12.40606 18.06412 11.22182
Ar 11.29696 20.22415 13.48284
Ar 15.12847 16.63424 14.26162
Ar 14.73600 20.50011 11.06238
Ar 11.60342 18.07826 17.01608
Ar 11.55919 20.32403 21.48953
Ar 14.54775 18.01072 20.67890
Ar 14.46302 20.71714 15.71058
Ar 17.40100 0.32845 0.59559
Ar 17.23544 3.32456 2.14845
Ar 21.08880 0.47128 1.26004
Ar 18.79736 2.97765 21.58152
Ar 19.13364 0.93006 5.07715
Ar 16.95571 2.95980 7.59729
Ar 20.06983 1.94422 8.45989
Ar 20.72411 4.86179 4.49202
Ar 18.12662 0.53823 10.70599
Ar 17.14312 2.92407 14.62902
Ar 19.94465 22.73307 14.41695
Ar 20.59720 3.08837 12.32546
Ar 17.00390 22.71612 18.17339
Ar 15.43231 2.22536 20.71029
Ar 20.07570 0.06594 20.75478
Ar 19.96195 2.33636 17.47047
Ar 15.99844 6.18910 0.11546
Ar 18.36383 9.30902 0.79367
Ar 19.38458 6.04474 1.06245
Ar 19.27989 7.67778 20.56263
Ar 15.81430 7.37600 4.46940
Ar 18.02694 7.42086 8.08634
Ar 21.03289 5.64173 7.99473
Ar 19.91496 8.57506 4.73954
Ar 17.19932 4.72119 11.12060
Ar 16.96594 6.61436 14.18086
Ar 19.74520 5.39934 15.79987
Ar 20.33133 6.76299 11.86152
Ar 16.97587 5.28827 17.72987
Ar 16.01425 8.82283 20.21697
Ar 20.99782 5.06471 19.16709
Ar 18.57059 8.60882 16.91429
Ar 16.71021 11.74659 22.14588
Ar 17.02447 13.23279 3.07836
Ar 21.28072 11.85917 1.46623
Ar 19.65995 14.21466 22.79644
Ar 17.16216 10.56694 6.68641
Ar 17.94790 13.43046 9.09748
Ar 20.84099 9.52469 8.54731
Ar 19.73939 12.29916 4.99866
Ar 17.22828 9.50883 11.45360
Ar 16.19502 13.04331 13.15187
Ar 18.63228 10.59246 14.36867
Ar 20.32360 13.56980 12.45235
Ar 16.86355 11.62047 17.35721
Ar 16.60131 14.81211 19.46679
Ar 20.06238 11.11044 20.25903
Ar 19.79829 13.70002 17.81480
Ar 16.39247 16.32557 0.38583
Ar 17.42943 21.05391 3.19727
Ar 21.42314 14.99190 2.93259
Ar 19.94971 18.33871 1.00924
Ar 18.02608 15.20348 6.00075
Ar 17.49235 21.18458 7.49552
Ar 19.66333 18.35897 8.49394
Ar 19.50819 18.40251 4.88388
Ar 18.31912 16.22957 10.90328
Ar 17.40787 19.77242 13.73846
Ar 19.03797 16.29197 14.97602
Ar 20.91826 20.83454 11.03033
Ar 16.66076 17.73443 17.32786
Ar 17.47487 19.96533 21.39526
Ar 19.23210 16.69686 20.01856
Ar 19.72322 20.01057 17.77858
256
frame 59
Ar 0.76490 0.00393 21.38423
Ar 21.90750 3.93652 22.55153
Ar 3.17289 0.14569 3.46125
Ar 2.81214 3.24414 1.37809
Ar 0.11444 2.11047 4.60756
Ar 1.25134 3.79449 9.76572
Ar 2.71725 1.09198 7.29802
Ar 4.42595 3.40529 4.93427
Ar 1.35892 22.81958 10.66528
Ar 22.63058 1.97033 15.25510
Ar 1.23416 21.49188 14.72302
Ar 3.44045 2.27132 13.71848
Ar 22.11948 22.22681 17.74087
Ar 3.25790 4.04635 20.71243
Ar 3.15041 21.52540 19.61389
Ar 3.29365 1.89388 17.20759
Ar 22.76003 7.34360 21.71021
Ar 22.59957 8.48518 2.30549
Ar 3.73955 7.75836 0.64557
Ar 5.76514 10.45562 21.22006
Ar 1.90928 5.74824 3.51593
Ar 1.40244 7.18169 9.81033
Ar 4.54531 6.19594 7.13589
Ar 2.19285 9.31430 5.12023
Ar 0.87046 4.96846 13.34727
Ar 21.98406 7.92076 15.04341
Ar 4.15995 6.84552 15.82756
Ar 2.54307 8.27552 13.15719
Ar 1.14631 5.47323 16.78551
Ar 22.20061 9.00295 18.62342
Ar 3.49252 7.08874 19.58724
Ar 3.09251 10.11155 16.41623
Ar 1.41523 10.60115 0.23633
Ar 1.94234 13.81295 3.14961
Ar 4.41387 10.74742 2.39736
Ar 3.64563 13.67549 22.12478
Ar 0.23625 12.00805 5.81448
Ar 21.60622 13.27920 8.72517
Ar 1.43511 10.54592 9.06507
Ar 3.15137 14.42785 6.81688
Ar 22.12409 10.51639 12.48852
Ar 22.77131 15.67225 14.50428
Ar 2.70663 11.99088 13.22582
Ar 1.53165 14.78523 11.53264
Ar 22.78952 11.60429 16.04789
Ar 22.30340 14.36810 19.98733
Ar 1.66888 11.87439 19.32974
Ar 2.06316 15.23818 17.41099
Ar 0.22838 15.88223 0.31886
Ar 22.67142 20.83756 4.00770
Ar 1.88735 17.57965 3.79086
Ar 1.94945 19.96261 0.54213
Ar 21.58326 15.99884 6.47738
Ar 21.68451 21.17522 7.06947
Ar 1.51740 17.32989 8.37718
Ar 2.64495 20.48853 6.31213
Ar 21.65928 16.76239 11.33238
Ar 21.60443 18.94642 14.18951
Ar 3.02721 17.15073 14.20540
Ar 1.51042 19.13475 11.56309
Ar 21.71142 17.13951 17.59255
Ar 21.57505 19.55211 21.04560
Ar 2.06981 17.30716 20.54252
Ar 1.92118 19.33610 17.51801
Ar 4.86751 22.36508 22.82297
Ar 6.40279 2.25645 1.60750
Ar 9.21858 0.23114 2.20460
Ar 9.00579 2.23684 21.97131
Ar 5.72897 22.29512 6.46965
Ar 5.74635 2.79503 9.24967
Ar 8.60559 22.53064 8.15482
Ar 7.98244 2.70807 5.15149
Ar 5.24196 22.25019 10.16972
Ar 6.68661 2.26104 15.01506
Ar 8.46857 22.17893 13.91383
Ar 8.28398 2.06712 11.56772
Ar 5.46128 22.05178 16.91500
Ar 6.04023 1.27419 20.03862
Ar 8.20002 21.65811 19.93235
Ar 8.90696 2.37111 18.16235
Ar 6.36522 5.40089 22.38404
Ar 7.34631 9.12184 1.21270
Ar 8.54221 6.84229 5.04629
Ar 9.29974 10.21783 21.29183
Ar 5.11718 7.35584 3.72396
Ar 4.66826 8.71121 9.74168
Ar 7.40249 6.15632 9.26117
Ar 7.76626 9.14221 7.70743
Ar 4.25152 5.32513 11.17552
Ar 5.93320 9.62871 12.95986
Ar 7.19378 5.80567 13.09918
Ar 9.09726 8.73062 11.89158
Ar 5.97476 4.42870 18.11085
Ar 7.96404 7.23295 19.79211
Ar 10.52048 4.89734 20.29576
Ar 7.96123 7.36497 16.29683
Ar 7.61586 13.26883 0.73449
Ar 5.80693 13.94725 3.85029
Ar 7.71476 10.89633 4.32847
Ar 10.78865 13.90200 1.64913
Ar 4.97584 11.19239 6.37697
Ar 6.67623 14.61650 8.19585
Ar 9.14355 12.69157 8.77696
Ar 9.26153 14.63428 5.69639
Ar 6.40442 13.49452 11.43627
Ar 5.31969 14.15527 14.72279
Ar 8.24712 11.79454 14.68819
Ar 9.66310 15.30654 11.16829
Ar 5.16933 12.19969 18.14730
Ar 6.15284 15.02223 20.46662
Ar 9.14611 11.27594 17.89172
Ar 9.04335 15.10979 17.93659
Ar 4.67853 16.67754 1.49538
Ar 5.39343 20.33353 2.49414
Ar 8.15789 16.23238 2.36377
Ar 8.50734 20.32291 0.34376
Ar 5.86764 17.14158 5.07594
Ar 5.25292 19.14398 8.66967
Ar 8.56176 17.67679 8.38819
Ar 8.31547 19.82577 4.82696
Ar 5.13163 16.71960 11.27282
Ar 5.41617 20.20690 13.94629
Ar 7.77736 17.54719 13.80794
Ar 8.46257 19.97116 11.20265
Ar 5.72753 17.11037 17.57388
Ar 5.28946 18.67740 21.29570
Ar 8.91558 17.56439 20.82196
Ar 8.25273 19.16937 16.90309
Ar 12.26946 0.68733 0.23765
Ar 11.05750 3.39637 3.34638
Ar 14.73917 0.07654 3.28870
Ar 12.83268 4.20435 0.03177
Ar 11.00008 22.39959 5.95034
Ar 10.63041 2.70250 7.47464
Ar 13.73893 0.90686 7.78822
Ar 14.41504 3.46606 4.90464
Ar 11.07617 0.19705 10.44972
Ar 10.95981 2.02392 14.20930
Ar 14.47224 0.71461 13.18087
Ar 13.21497 2.99440 10.81718
Ar 10.90695 21.78867 17.12539
Ar 12.00188 1.15313 19.45290
Ar 14.40569 21.14954 19.40226
Ar 13.92563 1.98912 16.79546
Ar 9.25841 5.84791 1.11915
Ar 10.84287 10.48533 2.31889
Ar 12.10367 7.62614 4.14570
Ar 12.57676 7.82888 0.07680
Ar 10.31386 6.01697 7.84304
Ar 11.13449 9.73426 9.30278
Ar 13.85012 5.09471 7.88681
Ar 14.01650 8.82214 7.61570
Ar 10.93058 5.33143 11.54682
Ar 11.34601 8.10039 15.02982
Ar 13.54046 5.28188 14.04754
Ar 13.72588 7.83338 11.74975
Ar 10.74940 5.28194 16.79104
Ar 11.41150 8.08806 19.55597
Ar 14.24455 5.50941 19.80512
Ar 14.22529 8.00431 17.35564
Ar 12.90930 11.59618 22.61236
Ar 13.35583 13.70519 3.94188
Ar 14.21947 10.12930 2.98968
Ar 13.39144 15.05780 21.99515
Ar 11.41552 11.17417 6.04213
Ar 11.58919 15.58061 8.31671
Ar 14.27615 11.44555 9.89058
Ar 14.66637 13.87386 7.21463
Ar 11.58126 12.61545 11.92376
Ar 11.06472 15.30559 14.67473
Ar 14.59996 9.65068 14.30956
Ar 14.39452 15.11998 10.62632
Ar 12.21334 11.76206 15.13600
Ar 10.33746 13.43348 20.94598
Ar 12.89250 11.29204 19.29550
Ar 13.12843 14.55795 17.99344
Ar 11.97407 17.60695 1.25283
Ar 11.28642 20.29342 2.88635
Ar 14.65549 17.83027 3.63544
Ar 14.61388 20.69439 0.16008
Ar 10.81538 17.55711 5.39205
Ar 11.56519 19.84305 8.51682
Ar 15.70783 17.97104 8.55705
Ar 14.07818 20.74182 5.90743
Ar 12.54269 18.02118 11.26342
Ar 11.34438 20.17694 13.46784
Ar 15.18414 16.66388 14.27070
Ar 14.71741 20.51337 10.87768
Ar 11.60216 18.19994 17.09440
Ar 11.53291 20.39388 21.36265
Ar 14.57823 17.92569 20.73303
Ar 14.55455 20.69432 15.73703
Ar 17.43181 0.32462 0.67511
Ar 17.19588 3.31625 2.23843
Ar 21.12841 0.44462 1.34154
Ar 18.77769 2.92065 21.58464
Ar 19.09023 0.88546 5.04340
Ar 16.90360 2.94857 7.65897
Ar 20.09714 1.97394 8.45423
Ar 20.75391 4.75808 4.41036
Ar 18.13151 0.51034 10.82687
Ar 17.13922 2.87523 14.66678
Ar 19.83034 22.72643 14.49648
Ar 20.61007 3.04698 12.25461
Ar 17.07607 22.70774 18.21133
Ar 15.51023 2.18718 20.59760
Ar 20.18722 0.10291 20.69021
Ar 20.05017 2.27997 17.55065
Ar 15.95274 6.18974 0.16949
Ar 18.49648 9.31524 0.75314
Ar 19.46272 6.07281 0.99295
Ar 19.28275 7.67214 20.59366
Ar 15.92927 7.46733 4.40345
Ar 18.08119 7.39989 8.09686
Ar 20.99393 5.44800 7.97249
Ar 19.87273 8.58996 4.70070
Ar 17.20460 4.71966 11.11639
Ar 16.87324 6.62074 14.21209
Ar 19.68664 5.34760 15.71267
Ar 20.32729 6.69165 11.87140
Ar 16.91497 5.21416 17.76776
Ar 16.01461 8.71683 20.29889
Ar 20.97569 5.09491 19.17563
Ar 18.56419 8.57916 16.97474
Ar 16.82622 11.87463 22.00595
Ar 16.99396 13.14778 3.02875
Ar 21.21362 11.79905 1.49667
Ar 19.60425 14.24971 22.73157
Ar 17.13452 10.60933 6.69103
Ar 17.96160 13.35743 9.08348
Ar 20.79035 9.48993 8.46076
Ar 19.68329 12.32735 4.96302
Ar 17.28921 9.42788 11.47389
Ar 16.14461 13.13255 13.07859
Ar 18.63959 10.49496 14.43471
Ar 20.39871 13.51138 12.35353
Ar 16.75388 11.61187 17.35284
Ar 16.63737 14.81029 19.51057
Ar 20.17974 11.15637 20.25466
Ar 19.82418 13.72531 17.82978
Ar 16.31756 16.47000 0.47921
Ar 17.45551 21.06557 3.16487
Ar 21.46306 15.14466 3.03003
Ar 19.84413 18.35041 1.08793
Ar 17.94474 15.19843 6.00495
Ar 17.49768 21.14539 7.55260
Ar 19.60080 18.42546 8.49903
Ar 19.47887 18.36796 4.84222
Ar 18.37895 16.27451 10.99777
Ar 17.38527 19.77931 13.77391
Ar 19.07161 16.28284 14.96855
Ar 20.90908 20.80924 10.97710
Ar 16.72851 17.76856 17.24372
Ar 17.51771 20.07876 21.35013
Ar 19.18226 16.70640 20.03786
Ar 19.63999 19.95805 17.80268
256
frame 60
Ar 0.63939 22.74057 21.35931
Ar 21.87731 3.90743 22.50721
Ar 3.07709 0.15052 3.43064
Ar 2.94135 3.42691 1.36860
Ar 0.12871 2.08136 4.55963
Ar 1.18661 3.78921 9.83590
Ar 2.80056 1.04849 7.26224
Ar 4.46004 3.35828 4.94965
Ar 1.38309 0.01669 10.65266
Ar 22.62164 1.88064 15.23768
Ar 1.19739 21.49584 14.79675
Ar 3.37189 2.32089 13.75099
Ar 22.14158 22.25364 17.76056
Ar 3.33521 3.96971 20.75757
Ar 3.18839 21.57932 19.51356
Ar 3.28742 1.83335 17.23770
Ar 22.81233 7.43824 21.89348
Ar 22.66042 8.53174 2.20154
Ar 3.71055 7.82843 0.47069
Ar 5.86771 10.58510 21.09728
Ar 1.98431 5.89446 3.48104
Ar 1.46646 7.31208 9.92620
Ar 4.47738 6.24988 7.16456
Ar 2.19234 9.31710 5.10194
Ar 0.79328 4.91403 13.42424
Ar 22.02254 7.89863 15.00394
Ar 4.16008 6.72598 15.87847
Ar 2.46481 8.26705 13.21898
Ar 1.05634 5.44212 16.81210
Ar 22.20535 9.00763 18.58699
Ar 3.60471 7.02254 19.51601
Ar 3.12224 10.10384 16.40617
Ar 1.41282 10.55877 0.12767
Ar 1.91677 13.75633 3.17034
Ar 4.43984 10.74748 2.43908
Ar 3.61401 13.67830 22.07054
Ar 0.23717 11.98580 5.83113
Ar 21.44586 13.30549 8.65074
Ar 1.41525 10.59623 9.14211
Ar 3.15483 14.41489 6.71554
Ar 22.18866 10.42067 12.25394
Ar 22.72923 15.69127 14.55739
Ar 2.66875 11.96914 13.19071
Ar 1.60803 14.83683 11.49150
Ar 0.00334 11.55584 16.10427
Ar 22.20413 14.29614 19.96324
Ar 1.71582 11.97776 19.29939
Ar 2.16016 15.27695 17.43147
Ar 0.09206 15.90212 0.32180
Ar 22.62147 20.85367 3.84155
Ar 1.91081 17.60427 3.75247
Ar 1.98021 20.06978 0.56454
Ar 21.62290 16.11235 6.50203
Ar 21.69139 21.32242 7.10155
Ar 1.51707 17.48600 8.32526
Ar 2.51544 20.47113 6.30036
Ar 21.67212 16.76279 11.41341
Ar 21.76120 18.98667 14.23690
Ar 3.00327 17.10568 14.21967
Ar 1.43851 19.08316 11.47735
Ar 21.62548 17.14274 17.59720
Ar 21.65056 19.52556 21.19280
Ar 2.10475 17.28177 20.56100
Ar 1.97444 19.26816 17.36481
Ar 4.84822 22.44409 22.82265
Ar 6.35069 2.17836 1.58347
Ar 9.28300 0.21610 2.22092
Ar 9.03990 2.14001 21.86774
Ar 5.74310 22.27573 6.43614
Ar 5.77540 2.94960 9.26475
Ar 8.56898 22.49355 8.25440
Ar 7.95410 2.76185 5.11884
Ar 5.15182 22.25368 10.24526
Ar 6.66935 2.27804 15.05595
Ar 8.44587 22.16041 13.86125
Ar 8.26770 2.11618 11.59335
Ar 5.41915 21.97417 16.96736
Ar 6.03476 1.27501 20.06236
Ar 8.18571 21.62522 19.84173
Ar 8.81241 2.31106 18.21005
Ar 6.26976 5.38590 22.33097
Ar 7.27553 9.06111 1.25613
Ar 8.53970 6.89814 5.08000
Ar 9.33150 10.20101 21.19856
Ar 5.05557 7.33407 3.64570
Ar 4.72338 8.71995 9.79870
Ar 7.40638 6.15148 9.26886
Ar 7.62048 9.23906 7.76848
Ar 4.25274 5.24162 11.26619
Ar 5.95762 9.54199 13.07175
Ar 7.14373 5.77700 13.16438
Ar 9.18039 8.82689 11.91485
Ar 6.01220 4.50885 18.20533
Ar 7.90140 7.19392 19.73187
Ar 10.47594 4.78039 20.23738
Ar 7.99000 7.29978 16.37637
Ar 7.65483 13.27710 0.74568
Ar 5.88919 13.99627 3.87847
Ar 7.68077 10.89235 4.39091
Ar 10.92108 13.88923 1.57019
Ar 4.89209 11.19287 6.34025
Ar 6.57442 14.66893 8.10616
Ar 9.03950 12.65359 8.86616
Ar 9.24037 14.56784 5.68488
Ar 6.36135 13.45464 11.42416
Ar 5.32995 14.09436 14.83491
Ar 8.29521 11.83639 14.62112
Ar 9.60982 15.30177 11.22708
Ar 5.10993 12.12577 18.20521
Ar 6.25827 15.15213 20.54122
Ar 9.15957 11.40702 17.89289
Ar 9.01384 15.28152 17.99394
Ar 4.77827 16.71316 1.47301
Ar 5.35550 20.30795 2.53896
Ar 8.28524 16.23138 2.27439
Ar 8.55091 20.49274 0.31945
Ar 5.89498 17.24629 5.07646
Ar 5.19001 18.99346 8.65356
Ar 8.46253 17.70751 8.37565
Ar 8.35088 19.86439 4.78255
Ar 5.17030 16.66338 11.35043
Ar 5.45367 20.10243 13.86030
Ar 7.71488 17.49496 13.73661
Ar 8.48967 19.97173 11.15292
Ar 5.62378 17.11121 17.66218
Ar 5.32254 18.66751 21.36597
Ar 8.84793 17.63148 20.77938
Ar 8.22512 19.18556 16.83663
Ar 12.27857 0.77003 0.24750
Ar 11.04426 3.46379 3.28810
Ar 14.67937 0.18091 3.36952
Ar 12.85815 4.23111 0.08449
Ar 11.05876 22.38616 5.93505
Ar 10.67358 2.66951 7.42927
Ar 13.67825 1.00854 7.77373
Ar 14.40818 3.38133 4.76322
Ar 11.10166 0.24806 10.38165
Ar 11.00320 2.08504 14.20893
Ar 14.39939 0.76582 13.07867
Ar 13.22751 2.87028 10.79412
Ar 10.88557 21.76882 17.13204
Ar 11.99306 1.10183 19.45438
Ar 14.45996 21.18028 19.45175
Ar 13.93720 1.99146 16.67943
Ar 9.22178 5.82544 1.11406
Ar 10.82303 10.48067 2.27288
Ar 12.08575 7.65906 4.14987
Ar 12.47855 7.68476 0.09343
Ar 10.41797 5.99423 7.87516
Ar 11.22733 9.64757 9.43889
Ar 13.78931 5.06256 7.89953
Ar 14.05246 8.81338 7.66067
Ar 11.05859 5.30432 11.65930
Ar 11.41048 8.15263 15.02607
Ar 13.53472 5.24829 14.07614
Ar 13.72546 7.81569 11.71922
Ar 10.77463 5.27177 16.81752
Ar 11.44447 7.93058 19.57017
Ar 14.27123 5.51613 19.84019
Ar 14.23686 8.03059 17.27986
Ar 12.87287 11.60157 22.67920
Ar 13.28232 13.67269 3.95109
Ar 14.10008 10.16751 3.00159
Ar 13.42691 15.04694 22.08467
Ar 11.35428 11.21110 6.14341
Ar 11.71243 15.46130 8.37753
Ar 14.36277 11.45965 10.00837
Ar 14.64562 13.80138 7.15362
Ar 11.49224 12.68062 11.73843
Ar 11.07476 15.29130 14.71419
Ar 14.71216 9.55765 14.31079
Ar 14.43649 15.17934 10.64642
Ar 12.25595 11.79822 15.16929
Ar 10.26697 13.35974 20.98442
Ar 13.01213 11.25183 19.21660
Ar 13.11323 14.50413 17.97325
Ar 11.99019 17.64603 1.24089
Ar 11.30190 20.39171 3.01449
Ar 14.75944 17.82973 3.62875
Ar 14.55568 20.70902 0.17673
Ar 10.85892 17.47969 5.31839
Ar 11.57094 19.94799 8.54324
Ar 15.66718 18.04328 8.50200
Ar 14.06291 20.74773 5.85595
Ar 12.66236 17.90822 11.30121
Ar 11.39131 20.15764 13.49185
Ar 15.22826 16.69012 14.26367
Ar 14.72469 20.57220 10.69332
Ar 11.62451 18.31045 17.17658
Ar 11.49126 20.45304 21.22063
Ar 14.60534 17.85692 20.74567
Ar 14.63318 20.67329 15.76820
Ar 17.45735 0.32388 0.69126
Ar 17.15471 3.33320 2.34920
Ar 21.16837 0.42020 1.43738
Ar 18.73200 2.93111 21.58816
Ar 19.05099 0.84631 5.00626
Ar 16.83423 2.94311 7.71739
Ar 20.17168 1.99846 8.43827
Ar 20.76464 4.67318 4.31649
Ar 18.10924 0.47011 10.97253
Ar 17.13703 2.82213 14.70399
Ar 19.70720 22.70924 14.57424
Ar 20.62026 3.00122 12.18322
Ar 17.19272 22.72125 18.22585
Ar 15.56767 2.14059 20.48651
Ar 20.28637 0.09195 20.60252
Ar 20.09946 2.19979 17.63256
Ar 15.90904 6.19269 0.22727
Ar 18.62692 9.34062 0.74062
Ar 19.55115 6.07981 0.94389
Ar 19.28390 7.66712 20.61755
Ar 16.05959 7.53892 4.34851
Ar 18.09696 7.36306 8.10969
Ar 20.97310 5.25807 7.96014
Ar 19.82246 8.60243 4.66689
Ar 17.20642 4.71200 11.10496
Ar 16.76794 6.64941 14.23465
Ar 19.66848 5.27844 15.61001
Ar 20.32460 6.63042 11.87888
Ar 16.86649 5.13243 17.80286
Ar 15.99888 8.62746 20.38570
Ar 20.97831 5.13300 19.18519
Ar 18.56143 8.48700 17.11763
Ar 16.92312 12.02800 21.85538
Ar 16.94139 13.06616 2.95443
Ar 21.15299 11.71272 1.55341
Ar 19.52228 14.31887 22.64456
Ar 17.09402 10.65354 6.69631
Ar 17.96597 13.26387 9.07566
Ar 20.75427 9.47070 8.37664
Ar 19.65457 12.34777 4.93291
Ar 17.33953 9.33752 11.46573
Ar 16.10050 13.21328 13.00913
Ar 18.66841 10.46047 14.44269
Ar 20.46007 13.46203 12.26045
Ar 16.62577 11.61164 17.35755
Ar 16.60634 14.75896 19.54946
Ar 20.27761 11.22399 20.27941
Ar 19.82315 13.75091 17.80191
Ar 16.27678 16.60985 0.59643
Ar 17.52710 20.98912 3.17872
Ar 21.45240 15.28987 3.18767
Ar 19.73283 18.35434 1.17358
Ar 17.85458 15.21358 6.01001
Ar 17.49936 21.12209 7.60531
Ar 19.54638 18.48548 8.50096
Ar 19.44691 18.34623 4.79153
Ar 18.38073 16.32199 11.11124
Ar 17.37793 19.78186 13.80176
Ar 19.10731 16.26756 14.95125
Ar 20.90136 20.78605 10.92737
Ar 16.78998 17.81541 17.18051
Ar 17.59979 20.18478 21.28360
Ar 19.18472 16.77157 20.08122
Ar 19.51937 19.89515 17.82576
256
frame 61
Ar 0.54928 22.67975 21.36818
Ar 21.89809 3.85798 22.46859
Ar 2.98082 0.15690 3.39894
Ar 3.07086 3.58410 1.35406
Ar 0.16123 2.02721 4.51591
Ar 1.11630 3.76236 9.90242
Ar 2.86077 1.02751 7.24130
Ar 4.48465 3.31110 4.95588
Ar 1.40418 0.03840 10.64353
Ar 22.63052 1.81840 15.20590
Ar 1.19162 21.51906 14.84620
Ar 3.29350 2.36776 13.75942
Ar 22.20028 22.25489 17.77975
Ar 3.39779 3.83956 20.80111
Ar 3.24920 21.63427 19.43975
Ar 3.26208 1.79461 17.28663
Ar 0.04354 7.50660 22.02535
Ar 22.69280 8.55718 2.17852
Ar 3.67085 7.88630 0.27364
Ar 5.95403 10.70023 21.00672
Ar 2.01924 6.04351 3.46818
Ar 1.50805 7.41525 10.03989
Ar 4.40011 6.30465 7.19155
Ar 2.19714 9.28498 5.07549
Ar 0.71360 4.86507 13.47098
Ar 22.05700 7.89595 14.96273
Ar 4.19103 6.59387 15.92199
Ar 2.38112 8.26390 13.27173
Ar 0.95838 5.39804 16.87594
Ar 22.23013 8.98193 18.53549
Ar 3.71784 7.01439 19.43160
Ar 3.14722 10.06794 16.38037
Ar 1.44253 10.56779 22.80431
Ar 1.90551 13.69791 3.17815
Ar 4.45278 10.77466 2.48624
Ar 3.55467 13.66780 22.03727
Ar 0.23308 11.98010 5.84721
Ar 21.29652 13.32933 8.59635
Ar 1.40399 10.68626 9.20858
Ar 3.15034 14.40835 6.61162
Ar 22.25589 10.30643 12.01864
Ar 22.67556 15.66116 14.62588
Ar 2.63838 11.93710 13.16134
Ar 1.71443 14.87956 11.42941
Ar 0.01399 11.52831 16.14370
Ar 22.13109 14.26618 19.98508
Ar 1.77863 12.05184 19.27483
Ar 2.26368 15.30933 17.45312
Ar 22.80606 15.93559 0.28769
Ar 22.57670 20.86203 3.64311
Ar 1.93245 17.62717 3.71652
Ar 2.01482 20.16549 0.59375
Ar 21.66669 16.22587 6.54489
Ar 21.68679 21.47659 7.16516
Ar 1.52537 17.63779 8.27118
Ar 2.38789 20.43922 6.28525
Ar 21.67819 16.78706 11.46538
Ar 21.88745 19.03730 14.29203
Ar 3.00188 17.07591 14.24253
Ar 1.38875 19.05221 11.40284
Ar 21.56310 17.14153 17.60318
Ar 21.73172 19.49202 21.32726
Ar 2.13850 17.25769 20.57220
Ar 2.01917 19.16133 17.19823
Ar 4.79897 22.50726 22.79215
Ar 6.31045 2.13345 1.58194
Ar 9.34606 0.26426 2.28312
Ar 9.06935 2.02556 21.78284
Ar 5.75065 22.24637 6.37026
Ar 5.80068 3.07941 9.24114
Ar 8.50549 22.45108 8.37324
Ar 7.92505 2.80969 5.08448
Ar 5.06481 22.26008 10.32890
Ar 6.66144 2.30370 15.10655
Ar 8.42287 22.14713 13.83343
Ar 8.25510 2.17664 11.62101
Ar 5.41800 21.88122 16.99871
Ar 5.97702 1.32714 20.07728
Ar 8.20448 21.55397 19.73187
Ar 8.73199 2.24117 18.23138
Ar 6.14901 5.35872 22.26996
Ar 7.22435 8.98705 1.29370
Ar 8.52401 6.95417 5.09200
Ar 9.36889 10.14485 21.13930
Ar 5.03525 7.31599 3.58908
Ar 4.77676 8.74050 9.86047
Ar 7.38158 6.13286 9.31761
Ar 7.49399 9.35850 7.82074
Ar 4.22881 5.17783 11.37276
Ar 5.96248 9.45704 13.19916
Ar 7.10817 5.74588 13.23349
Ar 9.24964 8.90695 11.96860
Ar 6.04344 4.58676 18.29424
Ar 7.82615 7.16906 19.70607
Ar 10.43768 4.64549 20.19899
Ar 8.00218 7.25466 16.41756
Ar 7.65483 13.23988 0.73390
Ar 5.95725 14.02689 3.90835
Ar 7.68030 10.88374 4.44265
Ar 11.04093 13.91314 1.50176
Ar 4.79309 11.20347 6.32522
Ar 6.41501 14.76082 7.99262
Ar 8.98177 12.56687 8.96282
Ar 9.20417 14.46394 5.66289
Ar 6.32551 13.37582 11.42317
Ar 5.33538 14.04225 14.95834
Ar 8.34792 11.88668 14.52395
Ar 9.51284 15.36018 11.29021
Ar 5.07960 12.10159 18.24443
Ar 6.38402 15.27537 20.61331
Ar 9.18212 11.53513 17.90926
Ar 8.98730 15.45084 18.03837
Ar 4.86643 16.73887 1.45140
Ar 5.32804 20.24888 2.61525
Ar 8.42838 16.27720 2.20044
Ar 8.56325 20.60812 0.28691
Ar 5.91413 17.36596 5.09307
Ar 5.11414 18.84865 8.62390
Ar 8.38328 17.73281 8.35049
Ar 8.36387 19.92063 4.74772
Ar 5.19624 16.62366 11.42149
Ar 5.46688 20.00622 13.76539
Ar 7.67462 17.41439 13.66940
Ar 8.51454 19.97018 11.08699
Ar 5.49062 17.10466 17.74340
Ar 5.36268 18.68056 21.42978
Ar 8.79409 17.70763 20.73920
Ar 8.20269 19.22781 16.77123
Ar 12.29389 0.84064 0.26602
Ar 11.03274 3.52781 3.23137
Ar 14.60431 0.29815 3.42119
Ar 12.88415 4.24145 0.14710
Ar 11.10285 22.37683 5.88142
Ar 10.70751 2.63377 7.39453
Ar 13.65315 1.09983 7.76232
Ar 14.39832 3.31330 4.62883
Ar 11.14345 0.27584 10.34402
Ar 11.04729 2.14980 14.20993
Ar 14.34425 0.78043 13.01013
Ar 13.26554 2.78336 10.74469
Ar 10.85352 21.74429 17.10784
Ar 11.98795 1.07641 19.49844
Ar 14.49401 21.20912 19.49270
Ar 13.96075 1.99900 16.55377
Ar 9.21663 5.80823 1.12082
Ar 10.73521 10.45420 2.24414
Ar 12.05582 7.66063 4.17007
Ar 12.37957 7.56619 0.12479
Ar 10.55819 6.01418 7.90759
Ar 11.32420 9.56773 9.55336
Ar 13.74367 5.03338 7.91928
Ar 14.10525 8.78538 7.68185
Ar 11.13373 5.30105 11.76443
Ar 11.46539 8.22499 15.00340
Ar 13.53624 5.18620 14.13615
Ar 13.71319 7.78349 11.62350
Ar 10.81795 5.22938 16.83787
Ar 11.49123 7.80092 19.55422
Ar 14.25272 5.51606 19.89747
Ar 14.25550 8.04456 17.21862
Ar 12.87918 11.58584 22.72966
Ar 13.22518 13.64386 3.96866
Ar 14.03103 10.23090 3.01101
Ar 13.45171 14.99559 22.16824
Ar 11.29297 11.24998 6.23593
Ar 11.82660 15.34781 8.42720
Ar 14.46813 11.47636 10.13323
Ar 14.63797 13.72195 7.10308
Ar 11.43043 12.70194 11.56224
Ar 11.08392 15.28287 14.75201
Ar 14.87146 9.51383 14.31914
Ar 14.50874 15.20600 10.65594
Ar 12.28183 11.84896 15.22465
Ar 10.20075 13.34288 20.99367
Ar 13.13501 11.19284 19.12152
Ar 13.09535 14.47180 17.94771
Ar 12.00497 17.65558 1.20357
Ar 11.35152 20.50524 3.14534
Ar 14.86339 17.83211 3.63428
Ar 14.49778 20.72366 0.23026
Ar 10.93873 17.42719 5.23949
Ar 11.57324 20.04503 8.56536
Ar 15.62786 18.09306 8.43168
Ar 14.07008 20.71424 5.82233
Ar 12.74940 17.78256 11.33984
Ar 11.43808 20.15834 13.54222
Ar 15.25887 16.71167 14.23851
Ar 14.74469 20.67402 10.51728
Ar 11.66869 18.40101 17.26284
Ar 11.44064 20.50290 21.06818
Ar 14.63097 17.82292 20.70893
Ar 14.69265 20.65909 15.80737
Ar 17.47535 0.32683 0.66167
Ar 17.11962 3.36869 2.46919
Ar 21.20318 0.40156 1.53538
Ar 18.67328 2.98979 21.58858
Ar 19.01735 0.81597 4.96993
Ar 16.76068 2.93965 7.77295
Ar 20.26167 1.98505 8.42531
Ar 20.75244 4.61248 4.21290
Ar 18.07104 0.42605 11.12643
Ar 17.13394 2.76465 14.73800
Ar 19.57892 22.68371 14.65160
Ar 20.62904 2.94989 12.11328
Ar 17.34145 22.74854 18.21669
Ar 15.59530 2.08879 20.37734
Ar 20.31855 0.05658 20.51175
Ar 20.10988 2.12334 17.71090
Ar 15.87661 6.19654 0.29510
Ar 18.73803 9.39342 0.74972
Ar 19.63683 6.06820 0.92171
Ar 19.28926 7.66949 20.63284
Ar 16.19832 7.59749 4.30051
Ar 18.07359 7.30800 8.12281
Ar 20.97088 5.10099 7.95109
Ar 19.77014 8.61234 4.63336
Ar 17.20410 4.69952 11.09013
Ar 16.66897 6.68671 14.25285
Ar 19.68171 5.19659 15.50133
Ar 20.32392 6.58059 11.88344
Ar 16.84747 5.04175 17.82055
Ar 15.96403 8.56384 20.47037
Ar 21.00243 5.17067 19.18714
Ar 18.55833 8.36427 17.30029
Ar 17.00095 12.17223 21.70623
Ar 16.86876 12.98843 2.85958
Ar 21.09795 11.63841 1.62189
Ar 19.43767 14.40218 22.56275
Ar 17.04345 10.69349 6.69987
Ar 17.95076 13.16516 9.08282
Ar 20.73998 9.47236 8.29584
Ar 19.65204 12.36395 4.91106
Ar 17.38093 9.23902 11.43185
Ar 16.06981 13.27723 12.95244
Ar 18.71398 10.46301 14.42671
Ar 20.50899 13.41846 12.17624
Ar 16.48745 11.61297 17.36721
Ar 16.53129 14.68628 19.57753
Ar 20.35560 11.30121 20.33250
Ar 19.77564 13.77166 17.71881
Ar 16.27421 16.74090 0.73396
Ar 17.60667 20.85700 3.22515
Ar 21.40099 15.41901 3.37128
Ar 19.61829 18.35224 1.25656
Ar 17.76132 15.24514 6.01492
Ar 17.49117 21.12622 7.64964
Ar 19.50538 18.52544 8.50149
Ar 19.41345 18.33331 4.74281
Ar 18.32501 16.36458 11.23206
Ar 17.39068 19.77855 13.81618
Ar 19.14351 16.24795 14.92213
Ar 20.89669 20.76733 10.88565
Ar 16.83501 17.86299 17.14249
Ar 17.70158 20.28277 21.20624
Ar 19.21322 16.87858 20.14171
Ar 19.39406 19.84901 17.85160
256
frame 62
Ar 0.54081 22.64235 21.40833
Ar 21.96712 3.78662 22.43273
Ar 2.89399 0.15909 3.36198
Ar 3.19434 3.72132 1.35076
Ar 0.20290 1.95662 4.48156
Ar 1.04342 3.72537 9.96584
Ar 2.89291 1.02748 7.23837
Ar 4.49252 3.27071 4.95300
Ar 1.41820 0.05944 10.63812
Ar 22.64124 1.79032 15.16446
Ar 1.23580 21.57231 14.86571
Ar 3.21416 2.40765 13.75157
Ar 22.29431 22.21684 17.79259
Ar 3.43315 3.68137 20.81509
Ar 3.28744 21.67699 19.41333
Ar 3.22278 1.77701 17.34608
Ar 0.09313 7.51896 22.05037
Ar 22.69792 8.58802 2.27489
Ar 3.63358 7.93164 0.07377
Ar 6.03643 10.78306 20.98698
Ar 1.99428 6.17083 3.47307
Ar 1.52431 7.47668 10.14055
Ar 4.31626 6.35867 7.21440
Ar 2.19988 9.22614 5.04441
Ar 0.63122 4.82711 13.48865
Ar 22.07831 7.91111 14.92328
Ar 4.23779 6.45562 15.94373
Ar 2.30801 8.26214 13.32911
Ar 0.86398 5.34532 16.96736
Ar 22.26749 8.93008 18.48385
Ar 3.82180 7.04311 19.35297
Ar 3.16997 10.00246 16.34083
Ar 1.49068 10.63609 22.63379
Ar 1.90303 13.64135 3.16929
Ar 4.45078 10.82362 2.53319
Ar 3.48721 13.65652 22.01729
Ar 0.22516 11.98583 5.86543
Ar 21.17602 13.35191 8.55118
Ar 1.41268 10.81861 9.24560
Ar 3.12851 14.41363 6.50580
Ar 22.30733 10.17634 11.80274
Ar 22.62520 15.58363 14.69964
Ar 2.61488 11.89930 13.13667
Ar 1.83836 14.91911 11.35331
Ar 22.82322 11.52412 16.16204
Ar 22.08787 14.28199 20.03903
Ar 1.84084 12.09875 19.25568
Ar 2.36440 15.33136 17.47429
Ar 22.70849 15.97757 0.24449
Ar 22.53813 20.84970 3.45266
Ar 1.95308 17.64739 3.68193
Ar 2.05488 20.24466 0.63150
Ar 21.71219 16.34302 6.63200
Ar 21.67809 21.63128 7.23434
Ar 1.54355 17.77140 8.21342
Ar 2.26820 20.40752 6.25895
Ar 21.66781 16.81850 11.49163
Ar 21.97109 19.07699 14.35004
Ar 3.01630 17.05769 14.26885
Ar 1.37154 19.05258 11.35058
Ar 21.52870 17.13777 17.61171
Ar 21.81148 19.44758 21.45121
Ar 2.17190 17.23678 20.57803
Ar 2.06395 19.02855 17.04293
Ar 4.71593 22.52755 22.74843
Ar 6.29911 2.12731 1.60759
Ar 9.40033 0.37758 2.38584
Ar 9.08512 1.88208 21.73253
Ar 5.75836 22.20324 6.27576
Ar 5.81798 3.16385 9.17740
Ar 8.42376 22.40680 8.48911
Ar 7.90634 2.85157 5.05001
Ar 4.98553 22.26631 10.41348
Ar 6.65689 2.33536 15.16352
Ar 8.40104 22.14023 13.82791
Ar 8.24814 2.24546 11.64989
Ar 5.47164 21.77921 16.98306
Ar 5.89040 1.40513 20.07877
Ar 8.23010 21.46840 19.60811
Ar 8.67223 2.16107 18.21599
Ar 6.03124 5.32608 22.21637
Ar 7.19526 8.90759 1.31519
Ar 8.49821 7.01001 5.09304
Ar 9.41680 10.04435 21.11407
Ar 5.07278 7.30802 3.54877
Ar 4.81902 8.77017 9.93629
Ar 7.35934 6.12424 9.38864
Ar 7.39738 9.48416 7.86178
Ar 4.17357 5.13801 11.49416
Ar 5.95083 9.37247 13.34061
Ar 7.09055 5.71360 13.30564
Ar 9.28621 8.96957 12.06640
Ar 6.06894 4.63789 18.36982
Ar 7.75515 7.16895 19.73745
Ar 10.41075 4.51289 20.18381
Ar 8.00410 7.22959 16.40594
Ar 7.62801 13.16893 0.71252
Ar 6.01100 14.04892 3.93837
Ar 7.70741 10.87048 4.48473
Ar 11.10811 13.96988 1.45295
Ar 4.68721 11.22621 6.32888
Ar 6.24107 14.86151 7.87668
Ar 8.93413 12.46514 9.05144
Ar 9.16434 14.33985 5.63668
Ar 6.29297 13.26512 11.42932
Ar 5.33602 13.99818 15.08573
Ar 8.40815 11.94298 14.40720
Ar 9.38301 15.47038 11.34695
Ar 5.07491 12.14262 18.22908
Ar 6.50130 15.36551 20.69530
Ar 9.20908 11.66326 17.92659
Ar 8.96738 15.61077 18.06134
Ar 4.94365 16.74714 1.43842
Ar 5.30453 20.17848 2.70309
Ar 8.57816 16.35800 2.14004
Ar 8.54658 20.67544 0.24645
Ar 5.92356 17.48771 5.11999
Ar 5.01993 18.71930 8.58546
Ar 8.33440 17.74884 8.30898
Ar 8.36108 19.98816 4.72515
Ar 5.20184 16.59617 11.47462
Ar 5.45257 19.92743 13.66644
Ar 7.66925 17.31179 13.62388
Ar 8.53868 19.96489 11.01830
Ar 5.34547 17.10446 17.81326
Ar 5.40374 18.72531 21.48148
Ar 8.76927 17.81101 20.70846
Ar 8.17712 19.27794 16.70457
Ar 12.31535 0.88919 0.29361
Ar 11.02232 3.58557 3.18300
Ar 14.53221 0.36725 3.42693
Ar 12.91145 4.22453 0.21418
Ar 11.11188 22.39413 5.83368
Ar 10.70891 2.61354 7.36709
Ar 13.67802 1.15864 7.73929
Ar 14.37079 3.31227 4.53721
Ar 11.18527 0.27454 10.33955
Ar 11.08633 2.21539 14.21052
Ar 14.31902 0.73749 12.99797
Ar 13.32148 2.78225 10.66350
Ar 10.81443 21.73373 17.05760
Ar 11.98872 1.07587 19.56272
Ar 14.52494 21.24116 19.51977
Ar 13.98864 2.00797 16.43367
Ar 9.22193 5.79493 1.12834
Ar 10.58366 10.41068 2.23102
Ar 12.01792 7.63457 4.20412
Ar 12.27856 7.49312 0.16991
Ar 10.67970 6.07883 7.94406
Ar 11.43246 9.50269 9.62453
Ar 13.74011 4.99848 7.93841
Ar 14.17282 8.74295 7.68347
Ar 11.15259 5.31123 11.85046
Ar 11.50756 8.30471 14.96688
Ar 13.55020 5.10218 14.22832
Ar 13.70550 7.74406 11.49764
Ar 10.87914 5.16611 16.84039
Ar 11.54293 7.70346 19.51157
Ar 14.19895 5.50395 19.96807
Ar 14.28213 8.03549 17.19399
Ar 12.93026 11.53694 22.73861
Ar 13.18773 13.62112 4.00134
Ar 14.01177 10.30598 3.02578
Ar 13.49124 14.92543 22.22946
Ar 11.23347 11.28744 6.32185
Ar 11.91146 15.24270 8.46672
Ar 14.58691 11.48810 10.25562
Ar 14.64872 13.63079 7.07052
Ar 11.40211 12.68486 11.40806
Ar 11.09058 15.28261 14.78688
Ar 15.04213 9.54570 14.30547
Ar 14.63129 15.17865 10.63384
Ar 12.30341 11.90228 15.28692
Ar 10.14418 13.38130 20.97312
Ar 13.25467 11.11491 19.02801
Ar 13.07415 14.46175 17.91893
Ar 12.01574 17.66179 1.15789
Ar 11.45025 20.58603 3.23291
Ar 14.95573 17.84309 3.66923
Ar 14.44529 20.73300 0.30872
Ar 11.03945 17.38855 5.15903
Ar 11.57373 20.12212 8.58566
Ar 15.58976 18.11290 8.34428
Ar 14.10426 20.64687 5.80862
Ar 12.78474 17.70559 11.38986
Ar 11.48627 20.17024 13.60656
Ar 15.27628 16.72850 14.19681
Ar 14.76514 20.80959 10.35660
Ar 11.73168 18.46269 17.35427
Ar 11.38786 20.54231 20.91294
Ar 14.65686 17.81566 20.63609
Ar 14.73014 20.65485 15.85591
Ar 17.48476 0.32522 0.61676
Ar 17.10464 3.41403 2.58249
Ar 21.22248 0.40236 1.61782
Ar 18.61570 3.08257 21.58335
Ar 18.98958 0.79595 4.93648
Ar 16.69665 2.93633 7.82544
Ar 20.34281 1.89466 8.42469
Ar 20.72053 4.57219 4.10399
Ar 18.02098 0.38103 11.28043
Ar 17.12863 2.70357 14.76592
Ar 19.45240 22.65306 14.73150
Ar 20.63697 2.89290 12.04638
Ar 17.49584 22.77859 18.18601
Ar 15.58915 2.03509 20.27082
Ar 20.24473 0.01235 20.43884
Ar 20.09266 2.07849 17.77251
Ar 15.86092 6.20051 0.37730
Ar 18.81111 9.45461 0.77052
Ar 19.71183 6.04720 0.92681
Ar 19.30127 7.68256 20.65383
Ar 16.33625 7.64750 4.25562
Ar 18.01938 7.23752 8.13505
Ar 20.98950 5.01863 7.93609
Ar 19.72150 8.62107 4.59888
Ar 17.19719 4.68364 11.07561
Ar 16.60479 6.70354 14.27011
Ar 19.71821 5.10875 15.39169
Ar 20.32592 6.54240 11.88416
Ar 16.85621 4.94203 17.82052
Ar 15.91252 8.53238 20.54796
Ar 21.04073 5.19936 19.17858
Ar 18.55013 8.23853 17.47454
Ar 17.05558 12.25879 21.58201
Ar 16.78409 12.91381 2.75133
Ar 21.06485 11.60647 1.69661
Ar 19.36691 14.49360 22.50656
Ar 16.98720 10.72414 6.69614
Ar 17.90128 13.07035 9.11172
Ar 20.74466 9.49291 8.21796
Ar 19.66274 12.38086 4.89830
Ar 17.41620 9.13447 11.37764
Ar 16.06316 13.31501 12.92458
Ar 18.77128 10.48001 14.41318
Ar 20.54800 13.37753 12.10369
Ar 16.34756 11.61095 17.37675
Ar 16.43481 14.64340 19.57417
Ar 20.41617 11.36712 20.40578
Ar 19.68935 13.78639 17.59372
Ar 16.30466 16.85686 0.86185
Ar 17.66664 20.71491 3.27597
Ar 21.32798 15.52582 3.52140
Ar 19.50801 18.34520 1.32018
Ar 17.67025 15.28813 6.01899
Ar 17.46951 21.16659 7.68262
Ar 19.47977 18.53448 8.50229
Ar 19.38579 18.31658 4.71884
Ar 18.22452 16.40179 11.35331
Ar 17.42482 19.76790 13.81362
Ar 19.17409 16.22742 14.88214
Ar 20.89588 20.75599 10.85596
Ar 16.84213 17.88853 17.12399
Ar 17.80739 20.36991 21.12791
Ar 19.23818 17.00934 20.21021
Ar 19.30271 19.84211 17.88264
256
frame 63
Ar 0.58526 22.63458 21.46647
Ar 22.07215 3.69598 22.39821
Ar 2.83196 0.14792 3.31439
Ar 3.30387 3.84834 1.37000
Ar 0.23567 1.88675 4.46434
Ar 0.97093 3.68407 10.02553
Ar 2.89875 1.04144 7.25367
Ar 4.47899 3.24127 4.94116
Ar 1.41996 0.07873 10.63690
Ar 22.63693 1.79866 15.12216
Ar 1.34186 21.64911 14.85352
Ar 3.14187 2.43409 13.73633
Ar 22.41186 22.14756 17.80514
Ar 3.41479 3.51695 20.78730
Ar 3.29094 21.69785 19.43213
Ar 3.17530 1.77749 17.40529
Ar 0.13075 7.48347 21.99412
Ar 22.67994 8.63799 2.43937
Ar 3.60926 7.96614 22.71084
Ar 6.11666 10.83425 21.03714
Ar 1.92003 6.24707 3.48791
Ar 1.51625 7.49929 10.21133
Ar 4.22886 6.41179 7.23315
Ar 2.19764 9.16242 5.02133
Ar 0.54607 4.80857 13.48471
Ar 22.07521 7.93920 14.89222
Ar 4.28750 6.31414 15.93068
Ar 2.26205 8.25781 13.39759
Ar 0.79028 5.28828 17.06324
Ar 22.31114 8.85914 18.44190
Ar 3.90505 7.10172 19.29278
Ar 3.19354 9.91679 16.29867
Ar 1.53485 10.74516 22.46300
Ar 1.90424 13.58875 3.14019
Ar 4.43811 10.88638 2.57466
Ar 3.42571 13.65620 22.00934
Ar 0.21864 11.99542 5.88537
Ar 21.09456 13.37575 8.50595
Ar 1.46364 10.98962 9.22794
Ar 3.07507 14.43479 6.39645
Ar 22.31436 10.02970 11.63792
Ar 22.59193 15.46773 14.76765
Ar 2.59674 11.86062 13.11485
Ar 1.96694 14.95876 11.26780
Ar 22.78958 11.54237 16.15970
Ar 22.06857 14.34035 20.09427
Ar 1.88329 12.12339 19.23666
Ar 2.44582 15.33082 17.49241
Ar 22.61849 16.02862 0.21387
Ar 22.51588 20.79078 3.29987
Ar 1.97323 17.66385 3.64782
Ar 2.10112 20.29793 0.67984
Ar 21.75398 16.46054 6.77013
Ar 21.67259 21.77226 7.29594
Ar 1.57052 17.86754 8.16433
Ar 2.16302 20.40188 6.20593
Ar 21.63661 16.84333 11.49966
Ar 22.01127 19.09183 14.40782
Ar 3.04011 17.04030 14.28785
Ar 1.39043 19.08811 11.32855
Ar 21.51982 17.13499 17.62507
Ar 21.88560 19.39323 21.56663
Ar 2.20627 17.22058 20.58093
Ar 2.10708 18.88974 16.91500
Ar 4.61055 22.51022 22.70711
Ar 6.31826 2.14734 1.65354
Ar 9.44209 0.52417 2.51053
Ar 9.07978 1.70323 21.72273
Ar 5.76686 22.14851 6.15859
Ar 5.81712 3.19429 9.08152
Ar 8.32806 22.37058 8.58887
Ar 7.90463 2.88853 5.01678
Ar 4.91870 22.27062 10.49599
Ar 6.64976 2.37126 15.22211
Ar 8.38036 22.13864 13.83982
Ar 8.24641 2.32024 11.67854
Ar 5.57015 21.67796 16.91857
Ar 5.80915 1.47861 20.06215
Ar 8.24022 21.38807 19.48040
Ar 8.63578 2.07052 18.16338
Ar 5.93817 5.29536 22.18183
Ar 7.18828 8.83260 1.31322
Ar 8.46521 7.06481 5.08997
Ar 9.48288 9.92230 21.11878
Ar 5.15560 7.30375 3.52468
Ar 4.84081 8.80481 10.03372
Ar 7.35736 6.14658 9.47329
Ar 7.33502 9.60069 7.88604
Ar 4.09354 5.11814 11.62023
Ar 5.92579 9.28887 13.49494
Ar 7.09023 5.67844 13.37522
Ar 9.29222 9.01970 12.19634
Ar 6.09247 4.63660 18.42342
Ar 7.70353 7.20480 19.82127
Ar 10.39760 4.40182 20.18970
Ar 8.00404 7.22225 16.35669
Ar 7.58528 13.07920 0.69448
Ar 6.04788 14.06921 3.96488
Ar 7.74881 10.85380 4.52064
Ar 11.10276 14.03645 1.43358
Ar 4.58417 11.26002 6.34651
Ar 6.08184 14.95920 7.77418
Ar 8.87760 12.36962 9.11998
Ar 9.13134 14.21181 5.61165
Ar 6.25756 13.13430 11.44131
Ar 5.33320 13.96394 15.20710
Ar 8.47645 12.00417 14.28049
Ar 9.25470 15.58799 11.37537
Ar 5.09592 12.23808 18.15707
Ar 6.59040 15.40660 20.79042
Ar 9.23669 11.79030 17.93582
Ar 8.95585 15.75536 18.05443
Ar 5.01153 16.73261 1.43860
Ar 5.27869 20.11309 2.78906
Ar 8.72107 16.46090 2.08942
Ar 8.51074 20.72098 0.21270
Ar 5.92141 17.59822 5.15399
Ar 4.91292 18.60921 8.54298
Ar 8.31676 17.75456 8.24907
Ar 8.35770 20.06402 4.71173
Ar 5.18297 16.57202 11.49807
Ar 5.41508 19.86660 13.56512
Ar 7.69379 17.21139 13.63168
Ar 8.56328 19.95047 10.96526
Ar 5.21229 17.12153 17.87491
Ar 5.43923 18.80584 21.51792
Ar 8.78623 17.95479 20.69151
Ar 8.14862 19.31936 16.63189
Ar 12.34055 0.90442 0.33165
Ar 11.01357 3.63549 3.15251
Ar 14.46749 0.34418 3.38119
Ar 12.94435 4.18322 0.28182
Ar 11.08565 22.45669 5.83418
Ar 10.67116 2.62291 7.34938
Ar 13.74648 1.16807 7.68966
Ar 14.31105 3.41427 4.51269
Ar 11.21912 0.25283 10.36818
Ar 11.11470 2.27798 14.20850
Ar 14.31732 0.64605 13.02903
Ar 13.39451 2.86529 10.58110
Ar 10.77515 21.75305 16.98778
Ar 11.99465 1.09518 19.62581
Ar 14.56340 21.27925 19.53339
Ar 14.01559 2.01459 16.33338
Ar 9.22026 5.78502 1.12891
Ar 10.40108 10.36027 2.22272
Ar 11.97905 7.59071 4.24661
Ar 12.17723 7.47506 0.22305
Ar 10.74638 6.18703 7.98429
Ar 11.53339 9.45871 9.64927
Ar 13.79840 4.95674 7.94861
Ar 14.25185 8.68821 7.66896
Ar 11.12016 5.32756 11.91593
Ar 11.54067 8.38263 14.92225
Ar 13.57583 5.00413 14.34369
Ar 13.72511 7.69396 11.37545
Ar 10.95224 5.09180 16.82224
Ar 11.58609 7.63716 19.44879
Ar 14.13341 5.47135 20.04005
Ar 14.31960 8.00241 17.19961
Ar 13.00653 11.45287 22.70947
Ar 13.16354 13.60943 4.04663
Ar 14.02331 10.37480 3.05114
Ar 13.57528 14.86264 22.24913
Ar 11.17899 11.31977 6.40236
Ar 11.95801 15.14793 8.49859
Ar 14.70994 11.48420 10.36553
Ar 14.67996 13.52560 7.06215
Ar 11.40414 12.65677 11.28686
Ar 11.09270 15.29297 14.81667
Ar 15.19480 9.66658 14.26262
Ar 14.79135 15.12144 10.56252
Ar 12.32633 11.95068 15.34941
Ar 10.09695 13.45449 20.93078
Ar 13.35644 11.02312 18.94887
Ar 13.04885 14.47075 17.89135
Ar 12.02549 17.67493 1.10968
Ar 11.59427 20.60497 3.23478
Ar 15.02268 17.86757 3.75727
Ar 14.39922 20.73372 0.40149
Ar 11.14965 17.35484 5.07894
Ar 11.57316 20.17048 8.59941
Ar 15.55198 18.10399 8.24391
Ar 14.15936 20.56138 5.81486
Ar 12.77314 17.68202 11.44996
Ar 11.53539 20.18957 13.67822
Ar 15.28188 16.74126 14.14178
Ar 14.78203 20.96907 10.21197
Ar 11.80968 18.49223 17.45185
Ar 11.34167 20.56850 20.76406
Ar 14.68358 17.82206 20.54543
Ar 14.74800 20.66174 15.91091
Ar 17.48614 0.31782 0.57394
Ar 17.12519 3.46327 2.67539
Ar 21.21073 0.44758 1.66220
Ar 18.56510 3.20126 21.57242
Ar 18.96700 0.78545 4.90622
Ar 16.65745 2.93331 7.87406
Ar 20.40370 1.73780 8.44124
Ar 20.67705 4.54292 3.99706
Ar 17.96020 0.33547 11.43034
Ar 17.12235 2.64139 14.78450
Ar 19.33632 22.61993 14.81701
Ar 20.64333 2.83094 11.98388
Ar 17.61301 22.80091 18.13291
Ar 15.55407 1.98287 20.16875
Ar 20.11388 22.78673 20.40812
Ar 20.07680 2.08942 17.80043
Ar 15.86304 6.20507 0.47441
Ar 18.82689 9.49651 0.79159
Ar 19.77513 6.02476 0.95175
Ar 19.32369 7.70330 20.71016
Ar 16.45929 7.68868 4.21069
Ar 17.94580 7.15792 8.14467
Ar 21.02400 5.01416 7.91207
Ar 19.68706 8.63215 4.56517
Ar 17.18560 4.66577 11.06471
Ar 16.59440 6.67308 14.28766
Ar 19.77289 5.01959 15.28474
Ar 20.33099 6.51505 11.87954
Ar 16.88100 4.83473 17.81105
Ar 15.84985 8.53360 20.61660
Ar 21.07674 5.21621 19.16955
Ar 18.52974 8.12336 17.59796
Ar 17.08926 12.24217 21.50908
Ar 16.69650 12.84256 2.63564
Ar 21.07613 11.64095 1.77773
Ar 19.31619 14.59067 22.48937
Ar 16.93182 10.74137 6.67805
Ar 17.81162 12.98522 9.16748
Ar 20.76011 9.52587 8.14200
Ar 19.67154 12.40234 4.89654
Ar 17.44864 9.02687 11.31051
Ar 16.09380 13.31759 12.94964
Ar 18.83704 10.50233 14.40733
Ar 20.57932 13.33719 12.04535
Ar 16.22182 11.60577 17.37752
Ar 16.32074 14.67438 19.51272
Ar 20.46153 11.40310 20.49075
Ar 19.58565 13.79440 17.45359
Ar 16.35974 16.94666 0.93935
Ar 17.68113 20.61024 3.30879
Ar 21.24590 15.60223 3.60537
Ar 19.41776 18.33352 1.34596
Ar 17.58530 15.33844 6.02217
Ar 17.43782 21.24204 7.70380
Ar 19.46385 18.51354 8.50452
Ar 19.37826 18.27559 4.75051
Ar 18.09519 16.43555 11.46862
Ar 17.47591 19.74840 13.79442
Ar 19.19158 16.21143 14.83471
Ar 20.89879 20.75424 10.84089
Ar 16.79628 17.87287 17.11653
Ar 17.89857 20.43688 21.06131
Ar 19.24771 17.15520 20.27953
Ar 19.27685 19.88007 17.91491
256
frame 64
Ar 0.63867 22.66126 21.52882
Ar 22.19851 3.59216 22.36472
Ar 2.80979 0.11531 3.25130
Ar 3.39267 3.96992 1.40767
Ar 0.24182 1.83379 4.47291
Ar 0.90172 3.64226 10.07909
Ar 2.88478 1.06123 7.28494
Ar 4.44486 3.22394 4.92147
Ar 1.40430 0.09519 10.64043
Ar 22.60656 1.83535 15.08812
Ar 1.50456 21.72889 14.81158
Ar 3.08105 2.43957 13.72208
Ar 22.53537 22.06249 17.82756
Ar 3.30607 3.38030 20.73828
Ar 3.27624 21.69149 19.46837
Ar 3.12245 1.79246 17.45418
Ar 0.15333 7.42568 21.90927
Ar 22.63257 8.70856 2.59917
Ar 3.60200 7.99641 22.55028
Ar 6.18405 10.86716 21.11931
Ar 1.83033 6.24199 3.50382
Ar 1.49241 7.48728 10.23977
Ar 4.14080 6.46449 7.24922
Ar 2.19775 9.12289 5.02672
Ar 0.45981 4.81784 13.46694
Ar 22.03647 7.97473 14.87586
Ar 4.33143 6.17040 15.87950
Ar 2.25324 8.24405 13.46763
Ar 0.76247 5.22958 17.13291
Ar 22.35808 8.77675 18.41278
Ar 3.96360 7.18639 19.24576
Ar 3.22095 9.82600 16.27158
Ar 1.55656 10.86155 22.31199
Ar 1.90379 13.54083 3.08734
Ar 4.42194 10.95401 2.60713
Ar 3.38239 13.68132 22.01379
Ar 0.21789 12.00308 5.90267
Ar 21.04380 13.40187 8.45758
Ar 1.55945 11.18984 9.16181
Ar 2.97804 14.47461 6.28247
Ar 22.26726 9.87384 11.53024
Ar 22.58292 15.32305 14.82339
Ar 2.58224 11.82540 13.09382
Ar 2.08714 14.99683 11.17521
Ar 22.74413 11.57826 16.14032
Ar 22.06704 14.42880 20.12622
Ar 1.89822 12.13164 19.20402
Ar 2.48350 15.28742 17.50381
Ar 22.53893 16.09149 0.21137
Ar 22.50850 20.67719 3.19217
Ar 1.99354 17.67497 3.61367
Ar 2.14957 20.31008 0.73987
Ar 21.77762 16.55881 6.92580
Ar 21.69329 21.85136 7.32758
Ar 1.60528 17.91354 8.14654
Ar 2.07700 20.44582 6.11081
Ar 21.58922 16.85838 11.49612
Ar 22.02044 19.08748 14.46520
Ar 3.07306 17.00486 14.27863
Ar 1.43970 19.15220 11.33839
Ar 21.53063 17.13505 17.64468
Ar 21.95365 19.33699 21.67368
Ar 2.24192 17.20989 20.58367
Ar 2.13567 18.77662 16.83230
Ar 4.50807 22.48265 22.67753
Ar 6.35929 2.17540 1.70666
Ar 9.47377 0.66737 2.64236
Ar 9.05203 1.49502 21.74560
Ar 5.76980 22.08985 6.02763
Ar 5.79529 3.17964 8.96466
Ar 8.22206 22.35613 8.66243
Ar 7.91800 2.92380 4.98727
Ar 4.86835 22.27220 10.57538
Ar 6.63392 2.41010 15.27557
Ar 8.36015 22.14115 13.86369
Ar 8.24813 2.39892 11.70516
Ar 5.67720 21.59154 16.82635
Ar 5.77972 1.50667 20.02391
Ar 8.22077 21.32710 19.36111
Ar 8.62585 1.97055 18.08554
Ar 5.87686 5.26767 22.16648
Ar 7.20181 8.77273 1.27859
Ar 8.42900 7.11737 5.08730
Ar 9.57153 9.80784 21.15072
Ar 5.24358 7.28819 3.52245
Ar 4.84025 8.84186 10.15338
Ar 7.37645 6.20129 9.56899
Ar 7.29636 9.68793 7.88843
Ar 4.00156 5.11649 11.73846
Ar 5.89090 9.20798 13.66030
Ar 7.10320 5.63621 13.43101
Ar 9.27939 9.06135 12.33179
Ar 6.12123 4.58311 18.45395
Ar 7.67230 7.27079 19.93146
Ar 10.39307 4.31717 20.21439
Ar 8.00865 7.23156 16.30116
Ar 7.53597 12.98206 0.68990
Ar 6.06300 14.09069 3.98333
Ar 7.78781 10.83565 4.55481
Ar 11.04337 14.08824 1.43731
Ar 4.49053 11.30249 6.37487
Ar 5.95590 15.05060 7.69588
Ar 8.80935 12.29889 9.16642
Ar 9.11283 14.09288 5.59271
Ar 6.21256 12.99446 11.45958
Ar 5.33045 13.95043 15.29783
Ar 8.55152 12.07145 14.15235
Ar 9.16746 15.66558 11.33229
Ar 5.14525 12.35193 18.07622
Ar 6.65152 15.40677 20.89492
Ar 9.26222 11.91184 17.93113
Ar 8.95094 15.88321 18.01741
Ar 5.07218 16.69569 1.44991
Ar 5.24493 20.06556 2.86058
Ar 8.83990 16.58260 2.04829
Ar 8.46441 20.76498 0.19565
Ar 5.90847 17.68514 5.19493
Ar 4.81440 18.52190 8.50274
Ar 8.32432 17.75182 8.17129
Ar 8.37248 20.14561 4.70101
Ar 5.15162 16.54744 11.49043
Ar 5.36258 19.81967 13.46208
Ar 7.71430 17.14800 13.73435
Ar 8.58987 19.91696 10.94551
Ar 5.12467 17.16865 17.93729
Ar 5.46481 18.91718 21.54059
Ar 8.83916 18.12400 20.68677
Ar 8.12763 19.33383 16.54643
Ar 12.36389 0.87633 0.37958
Ar 11.00739 3.68113 3.14937
Ar 14.41046 0.26819 3.30850
Ar 12.98696 4.13869 0.34688
Ar 11.03594 22.54047 5.87020
Ar 10.60878 2.67008 7.35090
Ar 13.82991 1.12650 7.61156
Ar 14.22374 3.57797 4.53832
Ar 11.24861 0.23202 10.42791
Ar 11.12714 2.33154 14.20127
Ar 14.32540 0.52880 13.07250
Ar 13.47921 2.98557 10.53880
Ar 10.74349 21.80435 16.90407
Ar 12.00491 1.12911 19.67314
Ar 14.61136 21.32178 19.53841
Ar 14.03705 2.01167 16.26913
Ar 9.19859 5.77668 1.11853
Ar 10.22294 10.31049 2.20801
Ar 11.94482 7.53762 4.29259
Ar 12.08318 7.50452 0.27686
Ar 10.76574 6.32576 8.02598
Ar 11.59596 9.44528 9.63486
Ar 13.90038 4.92958 7.93416
Ar 14.33697 8.62069 7.64128
Ar 11.04997 5.34809 11.96813
Ar 11.57334 8.45230 14.87781
Ar 13.61034 4.90511 14.46269
Ar 13.79175 7.61941 11.28013
Ar 11.02737 5.01285 16.79078
Ar 11.60800 7.60017 19.37162
Ar 14.07893 5.41286 20.10650
Ar 14.37398 7.94980 17.21158
Ar 13.08673 11.34436 22.65443
Ar 13.14095 13.61567 4.09541
Ar 14.04739 10.42060 3.08939
Ar 13.70617 14.81424 22.22984
Ar 11.13428 11.34242 6.47827
Ar 11.96816 15.06471 8.52384
Ar 14.82294 11.45215 10.45653
Ar 14.72604 13.40951 7.08209
Ar 11.43831 12.63578 11.20863
Ar 11.08841 15.31574 14.83882
Ar 15.32422 9.84764 14.20143
Ar 14.95688 15.07337 10.44279
Ar 12.35236 11.98949 15.40749
Ar 10.05881 13.54613 20.87971
Ar 13.40807 10.92194 18.90319
Ar 13.01762 14.49449 17.86999
Ar 12.04170 17.69568 1.05676
Ar 11.76338 20.57766 3.16422
Ar 15.06371 17.89554 3.89539
Ar 14.36111 20.72267 0.49897
Ar 11.26342 17.32157 5.00050
Ar 11.57188 20.18426 8.60026
Ar 15.51489 18.07323 8.13865
Ar 14.22135 20.48117 5.84369
Ar 12.73811 17.68063 11.50869
Ar 11.58417 20.21522 13.75327
Ar 15.27616 16.75026 14.07674
Ar 14.79356 21.14179 10.08115
Ar 11.89764 18.49624 17.55448
Ar 11.31371 20.58179 20.63035
Ar 14.70975 17.83714 20.44892
Ar 14.75195 20.67940 15.96653
Ar 17.48027 0.30948 0.53894
Ar 17.18187 3.51163 2.74646
Ar 21.16332 0.54481 1.66365
Ar 18.52086 3.33712 21.55605
Ar 18.94893 0.78277 4.87915
Ar 16.66227 2.93044 7.91810
Ar 20.42767 1.59912 8.48816
Ar 20.63131 4.51393 3.90446
Ar 17.88974 0.28966 11.57264
Ar 17.11878 2.58282 14.78994
Ar 19.24079 22.58534 14.90858
Ar 20.64584 2.76499 11.92749
Ar 17.64354 22.81087 18.05121
Ar 15.50180 1.93692 20.07407
Ar 20.01609 22.75865 20.42803
Ar 20.09373 2.16666 17.78997
Ar 15.88087 6.21234 0.58288
Ar 18.78797 9.51676 0.81555
Ar 19.82914 6.00615 0.98355
Ar 19.35966 7.72678 20.81645
Ar 16.54593 7.71625 4.16251
Ar 17.86204 7.07376 8.14851
Ar 21.06394 5.05109 7.88314
Ar 19.68366 8.65176 4.53708
Ar 17.16972 4.64720 11.06057
Ar 16.62885 6.60765 14.30587
Ar 19.84215 4.93059 15.18372
Ar 20.33894 6.49685 11.86738
Ar 16.91235 4.72145 17.79930
Ar 15.78152 8.56148 20.67746
Ar 21.08302 5.22467 19.18312
Ar 18.49203 8.02291 17.64627
Ar 17.10344 12.14253 21.47466
Ar 16.61460 12.77765 2.51551
Ar 21.13264 11.74020 1.85715
Ar 19.27663 14.68350 22.51240
Ar 16.88753 10.74175 6.63968
Ar 17.69879 12.91432 9.24889
Ar 20.77911 9.56528 8.06685
Ar 19.66657 12.43056 4.90980
Ar 17.48068 8.91951 11.23840
Ar 16.16550 13.28945 13.04040
Ar 18.91065 10.52681 14.40700
Ar 20.60428 13.29631 12.00286
Ar 16.14203 11.60523 17.35318
Ar 16.20080 14.76308 19.40825
Ar 20.49759 11.40418 20.58164
Ar 19.47832 13.79302 17.31790
Ar 16.41338 17.00185 0.95258
Ar 17.63655 20.56959 3.31718
Ar 21.16851 15.64301 3.63376
Ar 19.37402 18.32178 1.33079
Ar 17.50775 15.39227 6.02520
Ar 17.40593 21.34307 7.71341
Ar 19.44423 18.47554 8.51233
Ar 19.39368 18.20984 4.84817
Ar 17.95319 16.46973 11.56984
Ar 17.53610 19.71814 13.76183
Ar 19.19328 16.20638 14.78494
Ar 20.90428 20.76254 10.84073
Ar 16.71367 17.82307 17.12070
Ar 17.93833 20.45756 21.02691
Ar 19.24119 17.30777 20.34432
Ar 19.31719 19.93661 17.93062
256
frame 65
Ar 0.68171 22.71951 21.59267
Ar 22.33507 3.48233 22.33179
Ar 2.82806 0.06474 3.17476
Ar 3.45669 4.08107 1.45313
Ar 0.21837 1.80136 4.50952
Ar 0.83905 3.60345 10.12245
Ar 2.85775 1.08107 7.32873
Ar 4.39541 3.21746 4.89652
Ar 1.36826 0.10743 10.64935
Ar 22.54989 1.88157 15.06791
Ar 1.70639 21.79997 14.74735
Ar 3.03130 2.41814 13.71556
Ar 22.65562 21.97180 17.86002
Ar 3.10417 3.28919 20.69519
Ar 3.25913 21.65574 19.49550
Ar 3.06486 1.81669 17.48435
Ar 0.16223 7.35855 21.81944
Ar 22.55777 8.79613 2.72074
Ar 3.61013 8.03176 22.43037
Ar 6.22946 10.88341 21.19804
Ar 1.74105 6.15434 3.51901
Ar 1.46739 7.43916 10.22401
Ar 4.05444 6.51710 7.26444
Ar 2.20971 9.11600 5.07028
Ar 0.37798 4.85912 13.44066
Ar 21.95991 8.01436 14.87469
Ar 4.36476 6.02481 15.79876
Ar 2.27499 8.21009 13.51717
Ar 0.79515 5.16940 17.15833
Ar 22.40732 8.69064 18.39544
Ar 4.00418 7.28523 19.18946
Ar 3.25501 9.74689 16.28083
Ar 1.54219 10.94912 22.20289
Ar 1.89534 13.49814 3.00736
Ar 4.40969 11.01754 2.62898
Ar 3.36773 13.74683 22.02861
Ar 0.22303 12.00592 5.90947
Ar 21.00681 13.42888 8.40880
Ar 1.67860 11.40148 9.08274
Ar 2.84046 14.53588 6.16882
Ar 22.17955 9.73227 11.45954
Ar 22.59591 15.15958 14.86582
Ar 2.57010 11.79632 13.07218
Ar 2.18193 15.02591 11.07520
Ar 22.69186 11.62444 16.10856
Ar 22.07616 14.52780 20.12424
Ar 1.89140 12.13114 19.13812
Ar 2.46906 15.19460 17.50586
Ar 22.47592 16.16325 0.24822
Ar 22.49555 20.53385 3.11584
Ar 2.01511 17.67823 3.57972
Ar 2.19099 20.26521 0.80773
Ar 21.76932 16.61154 7.05923
Ar 21.77069 21.80858 7.30036
Ar 1.64115 17.92302 8.16575
Ar 2.00961 20.53336 5.97852
Ar 21.53424 16.86719 11.48533
Ar 22.01263 19.07593 14.52170
Ar 3.11613 16.93502 14.22575
Ar 1.50969 19.23373 11.37727
Ar 21.55578 17.13694 17.66897
Ar 22.01758 19.29356 21.76922
Ar 2.27799 17.20465 20.58837
Ar 2.13488 18.71609 16.80867
Ar 4.43551 22.47526 22.66069
Ar 6.41154 2.20151 1.75630
Ar 9.49845 0.77525 2.76826
Ar 9.00779 1.27236 21.78704
Ar 5.75751 22.03810 5.89423
Ar 5.76008 3.13959 8.83653
Ar 8.11009 22.37107 8.70688
Ar 7.93602 2.96375 4.96724
Ar 4.83586 22.27155 10.65113
Ar 6.60281 2.45074 15.31573
Ar 8.33961 22.14744 13.89401
Ar 8.25129 2.47893 11.72773
Ar 5.75224 21.54017 16.72249
Ar 5.81717 1.46983 19.97179
Ar 8.16788 21.29755 19.26065
Ar 8.64863 1.86422 17.99859
Ar 5.84458 5.23813 22.15894
Ar 7.22491 8.73167 1.20502
Ar 8.39659 7.16592 5.08953
Ar 9.68404 9.72670 21.21096
Ar 5.30357 7.25325 3.54426
Ar 4.82247 8.88161 10.28969
Ar 7.40757 6.27375 9.67319
Ar 7.25894 9.71973 7.86597
Ar 3.90923 5.13673 11.84031
Ar 5.85138 9.13161 13.83216
Ar 7.12494 5.58283 13.46019
Ar 9.25214 9.09308 12.44888
Ar 6.15904 4.50631 18.46723
Ar 7.64806 7.34460 20.04171
Ar 10.38743 4.25496 20.25635
Ar 8.02316 7.25842 16.26436
Ar 7.49070 12.88967 0.71147
Ar 6.05281 14.11381 3.99123
Ar 7.80711 10.81831 4.59222
Ar 10.96757 14.11141 1.44644
Ar 4.41084 11.35450 6.41291
Ar 5.86619 15.12967 7.64569
Ar 8.74428 12.27521 9.20322
Ar 9.11191 13.99533 5.58256
Ar 6.15119 12.85318 11.48454
Ar 5.33275 13.98370 15.30736
Ar 8.63197 12.14954 14.03128
Ar 9.12497 15.69643 11.21106
Ar 5.21575 12.43939 18.05607
Ar 6.69550 15.38772 21.00165
Ar 9.28374 12.02286 17.90686
Ar 8.94885 15.99686 17.95851
Ar 5.12721 16.64260 1.46623
Ar 5.20035 20.04486 2.90404
Ar 8.91681 16.72712 2.01912
Ar 8.41275 20.81695 0.20061
Ar 5.89005 17.74040 5.24264
Ar 4.76148 18.46554 8.47389
Ar 8.35073 17.74440 8.07868
Ar 8.41825 20.22591 4.68602
Ar 5.13869 16.52646 11.45979
Ar 5.30179 19.78343 13.35856
Ar 7.71276 17.11816 13.92366
Ar 8.62000 19.85786 10.96575
Ar 5.10107 17.24912 18.00761
Ar 5.47936 19.04741 21.55372
Ar 8.90731 18.27633 20.69022
Ar 8.13542 19.30472 16.44622
Ar 12.37692 0.80582 0.43150
Ar 11.00418 3.73438 3.17757
Ar 14.36691 0.18969 3.23872
Ar 13.03997 4.10863 0.40909
Ar 10.97742 22.60534 5.90467
Ar 10.53939 2.75980 7.38121
Ar 13.90387 1.04759 7.51589
Ar 14.13017 3.75738 4.58572
Ar 11.27688 0.22542 10.51272
Ar 11.11995 2.36822 14.18632
Ar 14.33494 0.39884 13.11148
Ar 13.56609 3.09693 10.55751
Ar 10.72476 21.88030 16.81453
Ar 12.01686 1.17135 19.69869
Ar 14.66421 21.36280 19.54095
Ar 14.04961 1.98437 16.25783
Ar 9.15065 5.76497 1.09636
Ar 10.08024 10.26643 2.17836
Ar 11.91857 7.48028 4.33893
Ar 12.00603 7.56675 0.32611
Ar 10.76259 6.47392 8.06478
Ar 11.61385 9.46430 9.59668
Ar 14.01117 4.94803 7.87913
Ar 14.41921 8.54043 7.60483
Ar 10.95666 5.37406 12.01379
Ar 11.61637 8.50878 14.84373
Ar 13.65735 4.82645 14.55955
Ar 13.90442 7.51544 11.21539
Ar 11.09118 4.93382 16.76114
Ar 11.60459 7.58531 19.28333
Ar 14.04700 5.33254 20.16310
Ar 14.44979 7.88048 17.21204
Ar 13.16178 11.22310 22.58365
Ar 13.11216 13.64441 4.14219
Ar 14.07014 10.43238 3.14039
Ar 13.86110 14.77262 22.19234
Ar 11.10528 11.35021 6.55003
Ar 11.94967 14.99388 8.54032
Ar 14.90538 11.38168 10.53376
Ar 14.77155 13.29244 7.12840
Ar 11.50210 12.62674 11.17473
Ar 11.07679 15.35119 14.85082
Ar 15.43380 10.04248 14.13112
Ar 15.10433 15.04056 10.29581
Ar 12.38152 12.01612 15.45680
Ar 10.03080 13.65002 20.83341
Ar 13.38277 10.81470 18.90532
Ar 12.97572 14.52994 17.85831
Ar 12.07398 17.71924 0.99241
Ar 11.92980 20.53544 3.06703
Ar 15.09540 17.89771 4.04539
Ar 14.33766 20.69447 0.58790
Ar 11.37810 17.28691 4.92484
Ar 11.56965 20.16455 8.58606
Ar 15.48139 18.02544 8.03840
Ar 14.27300 20.43902 5.90077
Ar 12.69404 17.68095 11.55705
Ar 11.63203 20.24545 13.82697
Ar 15.25689 16.75563 14.00782
Ar 14.79521 21.31759 9.96508
Ar 11.99053 18.48476 17.65750
Ar 11.31677 20.59273 20.51787
Ar 14.73150 17.86377 20.35513
Ar 14.74811 20.70625 16.01685
Ar 17.46710 0.30592 0.51247
Ar 17.25923 3.55501 2.80333
Ar 21.09292 0.67028 1.63922
Ar 18.48009 3.48113 21.53442
Ar 18.93534 0.78657 4.85593
Ar 16.72578 2.92278 7.95690
Ar 20.38671 1.56313 8.58708
Ar 20.59344 4.47410 3.84468
Ar 17.81192 0.24433 11.70369
Ar 17.12139 2.53371 14.77856
Ar 19.17804 22.54774 14.99911
Ar 20.64103 2.69660 11.88162
Ar 17.58037 22.82114 17.94744
Ar 15.44616 1.90522 19.99086
Ar 20.00539 22.79507 20.47997
Ar 20.14211 2.28550 17.75298
Ar 15.91127 6.22548 0.69649
Ar 18.71486 9.53660 0.86082
Ar 19.87558 5.99713 1.00731
Ar 19.40330 7.75203 20.94155
Ar 16.57805 7.72499 4.10897
Ar 17.77448 6.98558 8.14200
Ar 21.10350 5.10471 7.85254
Ar 19.71979 8.68511 4.52266
Ar 17.15054 4.62938 11.06639
Ar 16.69084 6.53614 14.32396
Ar 19.92141 4.84194 15.09147
Ar 20.34829 6.48529 11.84505
Ar 16.94539 4.60379 17.78910
Ar 15.71170 8.60547 20.73360
Ar 21.04338 5.23295 19.23593
Ar 18.44154 7.93437 17.63558
Ar 17.09635 12.01043 21.45144
Ar 16.54677 12.72483 2.39126
Ar 21.21574 11.88342 1.91954
Ar 19.23488 14.75970 22.56667
Ar 16.86900 10.72137 6.57860
Ar 17.60146 12.86076 9.34369
Ar 20.79733 9.60746 7.99179
Ar 19.64128 12.46591 4.94156
Ar 17.51355 8.81607 11.16930
Ar 16.26789 13.25337 13.17902
Ar 18.99353 10.55247 14.40982
Ar 20.62370 13.25430 11.97626
Ar 16.13361 11.61994 17.29206
Ar 16.09862 14.86487 19.29163
Ar 20.53422 11.37891 20.67496
Ar 19.37299 13.77870 17.19667
Ar 16.42559 17.02148 0.91950
Ar 17.54736 20.57762 3.31155
Ar 21.11060 15.64220 3.62468
Ar 19.40168 18.32197 1.29305
Ar 17.43567 15.44415 6.02979
Ar 17.38611 21.45974 7.70924
Ar 19.40350 18.43858 8.53613
Ar 19.40993 18.15682 4.98679
Ar 17.81821 16.51084 11.64706
Ar 17.59838 19.67608 13.72000
Ar 19.18506 16.21717 14.73948
Ar 20.91084 20.77971 10.85364
Ar 16.62120 17.75896 17.13903
Ar 17.88824 20.41029 21.04052
Ar 19.22462 17.44790 20.40056
Ar 19.40682 19.98305 17.91428
256
frame 66
Ar 0.71361 22.79870 21.66071
Ar 22.47364 3.37509 22.29895
Ar 2.87145 0.01324 3.09459
Ar 3.49725 4.17055 1.49579
Ar 0.17749 1.78058 4.56788
Ar 0.78639 3.57139 10.15126
Ar 2.82204 1.09809 7.38122
Ar 4.33669 3.21903 4.87027
Ar 1.31278 0.11364 10.66431
Ar 22.47661 1.91905 15.06042
Ar 1.92841 21.86096 14.67107
Ar 2.98978 2.37052 13.71909
Ar 22.77097 21.88063 17.89622
Ar 2.85751 3.22560 20.66751
Ar 3.24624 21.59237 19.50004
Ar 3.00415 1.84298 17.48954
Ar 0.16322 7.28597 21.73401
Ar 22.48740 8.88749 2.79260
Ar 3.62970 8.07817 22.36225
Ar 6.24643 10.87305 21.24591
Ar 1.64300 6.02495 3.54505
Ar 1.45095 7.35640 10.17029
Ar 3.97176 6.56916 7.28048
Ar 2.23195 9.12000 5.13885
Ar 0.31088 4.92899 13.40940
Ar 21.85573 8.05679 14.88307
Ar 4.38522 5.87760 15.70197
Ar 2.30745 8.14956 13.53105
Ar 0.87129 5.10731 17.15036
Ar 22.45867 8.60748 18.38689
Ar 4.03606 7.38440 19.10232
Ar 3.29350 9.69139 16.34062
Ar 1.48828 10.99142 22.14985
Ar 1.87302 13.46242 2.89894
Ar 4.40779 11.06856 2.64015
Ar 3.38201 13.85299 22.04963
Ar 0.22939 12.00286 5.89706
Ar 20.97168 13.45295 8.36478
Ar 1.80598 11.61270 9.01552
Ar 2.67930 14.62138 6.06505
Ar 22.06360 9.62235 11.41339
Ar 22.62245 14.99007 14.89544
Ar 2.55937 11.77384 13.04972
Ar 2.23317 15.03635 10.96526
Ar 22.63516 11.67101 16.06880
Ar 22.09057 14.62165 20.09409
Ar 1.87135 12.12332 19.03203
Ar 2.42426 15.07882 17.49744
Ar 22.43533 16.22829 0.32648
Ar 22.45612 20.38509 3.05979
Ar 2.03949 17.66989 3.54764
Ar 2.22276 20.16034 0.86992
Ar 21.73303 16.60502 7.15229
Ar 21.87916 21.68851 7.23494
Ar 1.65625 17.91950 8.20753
Ar 1.96429 20.63670 5.82762
Ar 21.47854 16.87376 11.46999
Ar 21.99610 19.06497 14.57518
Ar 3.15934 16.83660 14.14700
Ar 1.59253 19.32299 11.44068
Ar 21.59159 17.13847 17.69328
Ar 22.07967 19.28272 21.84469
Ar 2.31289 17.20438 20.59573
Ar 2.10486 18.70469 16.83126
Ar 4.40472 22.50464 22.65565
Ar 6.46487 2.22325 1.79516
Ar 9.51917 0.82400 2.87339
Ar 8.95816 1.05798 21.83247
Ar 5.72268 22.00379 5.77041
Ar 5.72050 3.08989 8.70408
Ar 7.99747 22.40998 8.72964
Ar 7.94451 3.01726 4.96583
Ar 4.81850 22.27121 10.72229
Ar 6.55165 2.49109 15.33703
Ar 8.31819 22.15815 13.92490
Ar 8.25427 2.55612 11.74355
Ar 5.77113 21.53587 16.61116
Ar 5.88060 1.38695 19.92391
Ar 8.08895 21.30264 19.18295
Ar 8.70780 1.75888 17.91342
Ar 5.83799 5.20290 22.14523
Ar 7.23259 8.70084 1.09674
Ar 8.37726 7.20825 5.10142
Ar 9.81704 9.69565 21.29773
Ar 5.32219 7.20162 3.58030
Ar 4.79353 8.92526 10.43606
Ar 7.44255 6.35077 9.78274
Ar 7.20808 9.68481 7.82534
Ar 3.82454 5.18083 11.92267
Ar 5.81476 9.06117 14.00198
Ar 7.15358 5.52013 13.45727
Ar 9.20848 9.10967 12.53291
Ar 6.20441 4.43694 18.46821
Ar 7.61875 7.40946 20.13698
Ar 10.37191 4.21273 20.31380
Ar 8.05066 7.30116 16.25727
Ar 7.46096 12.81715 0.77565
Ar 6.01885 14.13752 3.99107
Ar 7.79579 10.80408 4.63301
Ar 10.89732 14.10389 1.45145
Ar 4.35038 11.42216 6.45959
Ar 5.80272 15.18414 7.62147
Ar 8.69750 12.30660 9.24207
Ar 9.12544 13.93096 5.58016
Ar 6.06791 12.71413 11.51602
Ar 5.34156 14.07204 15.21576
Ar 8.71734 12.24545 13.92405
Ar 9.09964 15.70700 11.05650
Ar 5.30056 12.48265 18.12442
Ar 6.72950 15.36614 21.10389
Ar 9.30056 12.12047 17.85942
Ar 8.94675 16.09763 17.88802
Ar 5.17667 16.58242 1.48178
Ar 5.14826 20.04969 2.90997
Ar 8.94450 16.89537 2.00310
Ar 8.35713 20.87081 0.23444
Ar 5.87348 17.76561 5.28873
Ar 4.79025 18.45242 8.46701
Ar 8.39307 17.73653 7.97568
Ar 8.49709 20.29486 4.66103
Ar 5.17756 16.51511 11.41317
Ar 5.23781 19.75467 13.25754
Ar 7.69773 17.07210 14.12404
Ar 8.65347 19.77761 11.01777
Ar 5.12759 17.34795 18.08537
Ar 5.48391 19.18324 21.56063
Ar 8.96771 18.36849 20.70129
Ar 8.19028 19.24723 16.35348
Ar 12.36971 0.70906 0.47513
Ar 11.00055 3.80912 3.23202
Ar 14.35151 0.13830 3.19733
Ar 13.09950 4.09253 0.47259
Ar 10.91934 22.63943 5.92772
Ar 10.47475 2.88547 7.44147
Ar 13.96300 0.95608 7.41057
Ar 14.05288 3.93352 4.63289
Ar 11.30341 0.23244 10.61368
Ar 11.09421 2.38152 14.16232
Ar 14.34066 0.26318 13.14341
Ar 13.65008 3.18395 10.62979
Ar 10.72081 21.97158 16.73057
Ar 12.02511 1.21424 19.70294
Ar 14.71303 21.39369 19.54629
Ar 14.05227 1.91678 16.30759
Ar 9.07997 5.74341 1.06365
Ar 9.99773 10.23532 2.13334
Ar 11.90234 7.42127 4.38407
Ar 11.95261 7.64502 0.37077
Ar 10.74995 6.61059 8.09377
Ar 11.60790 9.50805 9.55919
Ar 14.11088 5.01604 7.79639
Ar 14.48801 8.45347 7.56430
Ar 10.85162 5.40759 12.05565
Ar 11.67855 8.54850 14.82761
Ar 13.72480 4.78701 14.61185
Ar 14.04293 7.39121 11.16980
Ar 11.12991 4.85827 16.75004
Ar 11.58114 7.57860 19.18571
Ar 14.03682 5.24360 20.20381
Ar 14.54638 7.79735 17.19615
Ar 13.23129 11.09773 22.50744
Ar 13.07654 13.69409 4.18728
Ar 14.08092 10.40817 3.20310
Ar 14.01929 14.72962 22.15265
Ar 11.09714 11.33937 6.61643
Ar 11.91115 14.93681 8.54383
Ar 14.93525 11.26781 10.61205
Ar 14.79661 13.18582 7.19163
Ar 11.58590 12.62843 11.18130
Ar 11.05855 15.39775 14.85075
Ar 15.51922 10.20588 14.05881
Ar 15.20604 15.02019 10.14370
Ar 12.41338 12.03047 15.49398
Ar 10.01430 13.76393 20.80035
Ar 13.29910 10.71203 18.93952
Ar 12.91559 14.57514 17.85747
Ar 12.12863 17.73620 0.90868
Ar 12.05998 20.48885 2.98441
Ar 15.13339 17.84809 4.17179
Ar 14.34801 20.64146 0.64265
Ar 11.49161 17.25039 4.85302
Ar 11.56563 20.11973 8.56043
Ar 15.45556 17.96037 7.95429
Ar 14.29913 20.46531 5.98581
Ar 12.64457 17.67593 11.59036
Ar 11.67951 20.27606 13.89208
Ar 15.21720 16.75798 13.94795
Ar 14.78093 21.48613 9.87055
Ar 12.08485 18.46310 17.75266
Ar 11.36017 20.62229 20.42887
Ar 14.74329 17.90838 20.27456
Ar 14.74132 20.73942 16.05775
Ar 17.44595 0.31106 0.49345
Ar 17.33840 3.59016 2.85169
Ar 21.01146 0.80146 1.60462
Ar 18.43929 3.62577 21.50801
Ar 18.92671 0.79574 4.83752
Ar 16.84267 2.90301 7.98899
Ar 20.29947 1.59217 8.70807
Ar 20.57433 4.41551 3.83505
Ar 17.73095 0.20035 11.81950
Ar 17.12966 2.49859 14.74856
Ar 19.16300 22.50342 15.07042
Ar 20.62599 2.62991 11.85963
Ar 17.45616 0.02022 17.85122
Ar 15.40009 1.89855 19.92456
Ar 20.05395 0.05899 20.54357
Ar 20.19726 2.40321 17.70221
Ar 15.95109 6.24713 0.80750
Ar 18.62247 9.57197 0.94379
Ar 19.91635 6.00162 1.01540
Ar 19.44312 7.78351 21.04113
Ar 16.56005 7.71587 4.05248
Ar 17.68873 6.89062 8.12039
Ar 21.14092 5.16668 7.82149
Ar 19.76956 8.72980 4.53435
Ar 17.12985 4.61384 11.08526
Ar 16.77134 6.47366 14.34055
Ar 20.00260 4.75541 15.00998
Ar 20.35541 6.47624 11.80994
Ar 16.97792 4.48404 17.78206
Ar 15.64289 8.65242 20.78802
Ar 20.97603 5.25017 19.31902
Ar 18.38709 7.85475 17.59486
Ar 17.06988 11.87681 21.42683
Ar 16.49875 12.68969 2.26194
Ar 21.30985 12.05545 1.95705
Ar 19.18489 14.81235 22.64073
Ar 16.88963 10.67549 6.49600
Ar 17.56956 12.82046 9.43130
Ar 20.81271 9.65052 7.91731
Ar 19.59580 12.50716 4.99020
Ar 17.54800 8.72090 11.11048
Ar 16.39342 13.24287 13.33397
Ar 19.08674 10.57905 14.41456
Ar 20.63830 13.21118 11.96412
Ar 16.17684 11.64961 17.20947
Ar 16.03474 14.94762 19.17752
Ar 20.57918 11.33949 20.76903
Ar 19.27212 13.74902 17.09389
Ar 16.38682 17.01666 0.86157
Ar 17.43491 20.60808 3.30062
Ar 21.07652 15.60165 3.59015
Ar 19.49184 18.33963 1.25460
Ar 17.36553 15.48571 6.03794
Ar 17.38993 21.58537 7.68729
Ar 19.32709 18.41784 8.58996
Ar 19.40897 18.14877 5.13101
Ar 17.71391 16.56599 11.68916
Ar 17.65878 19.62430 13.67330
Ar 19.17807 16.24539 14.70564
Ar 20.91721 20.80400 10.87671
Ar 16.53543 17.69762 17.16423
Ar 17.75994 20.34230 21.09320
Ar 19.21267 17.54170 20.44210
Ar 19.52386 20.01814 17.87051
256
frame 67
Ar 0.74338 0.05595 21.73359
Ar 22.59750 3.28479 22.27153
Ar 2.92189 22.80538 3.01941
Ar 3.52100 4.22970 1.52482
Ar 0.13268 1.76064 4.63990
Ar 0.74583 3.54933 10.16274
Ar 2.77939 1.11076 7.43864
Ar 4.27321 3.22501 4.84763
Ar 1.24198 0.11241 10.68582
Ar 22.40297 1.93728 15.05715
Ar 2.15625 21.90761 14.59233
Ar 2.95552 2.30963 13.72804
Ar 0.05626 21.79269 17.93017
Ar 2.61344 3.17590 20.65328
Ar 3.24034 21.50694 19.48258
Ar 2.94421 1.86405 17.46734
Ar 0.16537 7.20906 21.66020
Ar 22.46537 8.97487 2.80448
Ar 3.65785 8.13423 22.34246
Ar 6.23420 10.83389 21.25066
Ar 1.52153 5.89310 3.59646
Ar 1.43998 7.25088 10.08916
Ar 3.89522 6.61869 7.29877
Ar 2.25592 9.11292 5.21357
Ar 0.27248 5.01704 13.37548
Ar 21.73806 8.09978 14.89485
Ar 4.39184 5.72946 15.60194
Ar 2.33378 8.07146 13.51606
Ar 0.96479 5.04449 17.12791
Ar 22.51240 8.53212 18.38272
Ar 4.06517 7.47389 18.98481
Ar 3.32452 9.66283 16.44384
Ar 1.40525 11.00140 22.14462
Ar 1.83588 13.43755 2.76632
Ar 4.42011 11.10052 2.64189
Ar 3.41356 13.98107 22.07314
Ar 0.23086 11.99352 5.86078
Ar 20.93416 13.46581 8.33134
Ar 1.93243 11.82043 8.97238
Ar 2.51149 14.73129 5.97690
Ar 21.93297 9.54651 11.38459
Ar 22.65345 14.83490 14.90868
Ar 2.54889 11.75641 13.02738
Ar 2.23852 15.02679 10.84479
Ar 22.57420 11.70039 16.02651
Ar 22.10850 14.70046 20.05364
Ar 1.84124 12.09105 18.90835
Ar 2.37534 14.98161 17.47374
Ar 22.42223 16.26684 0.43578
Ar 22.37938 20.24169 3.01833
Ar 2.06794 17.64512 3.52109
Ar 2.25354 20.01249 0.90713
Ar 21.68290 16.54858 7.20677
Ar 21.96915 21.55615 7.17100
Ar 1.64692 17.91793 8.26010
Ar 1.95699 20.73072 5.66778
Ar 21.42620 16.88031 11.45193
Ar 21.97413 19.05844 14.62247
Ar 3.18633 16.72916 14.07197
Ar 1.68324 19.41255 11.52329
Ar 21.63525 17.13943 17.71031
Ar 22.14231 19.31998 21.88762
Ar 2.34477 17.20931 20.60531
Ar 2.05888 18.72166 16.87550
Ar 4.40663 22.56649 22.66225
Ar 6.51203 2.24122 1.81888
Ar 9.54012 0.81075 2.94562
Ar 8.91895 0.89504 21.86181
Ar 5.66703 21.99323 5.66641
Ar 5.68317 3.03899 8.57167
Ar 7.88948 22.46197 8.74046
Ar 7.93334 3.09025 4.98945
Ar 4.81017 22.27616 10.78670
Ar 6.48096 2.52637 15.34064
Ar 8.29601 22.17422 13.95023
Ar 8.25643 2.62297 11.74805
Ar 5.73717 21.56873 16.49142
Ar 5.93545 1.27857 19.88653
Ar 7.99806 21.32802 19.12892
Ar 8.79351 1.67165 17.83465
Ar 5.85237 5.16007 22.11664
Ar 7.20397 8.66876 0.96766
Ar 8.37738 7.24189 5.12528
Ar 9.95585 9.71793 21.39470
Ar 5.29969 7.13979 3.61665
Ar 4.75747 8.97295 10.58714
Ar 7.47725 6.42633 9.89461
Ar 7.14636 9.59882 7.78802
Ar 3.75319 5.24110 11.98600
Ar 5.78911 8.99750 14.15793
Ar 7.18922 5.45983 13.42946
Ar 9.14819 9.10739 12.58218
Ar 6.25500 4.39060 18.46073
Ar 7.58542 7.46563 20.21330
Ar 10.34100 4.19124 20.38491
Ar 8.09220 7.35237 16.27874
Ar 7.45067 12.77110 0.88751
Ar 5.96713 14.15936 3.99046
Ar 7.75532 10.79545 4.66643
Ar 10.83545 14.07584 1.45277
Ar 4.31632 11.51196 6.50904
Ar 5.75437 15.20083 7.62031
Ar 8.66783 12.37469 9.28017
Ar 9.14716 13.90694 5.58223
Ar 5.96173 12.57807 11.55294
Ar 5.35634 14.18330 15.07269
Ar 8.80757 12.36350 13.83218
Ar 9.07670 15.71160 10.89892
Ar 5.39612 12.50721 18.23513
Ar 6.75594 15.35024 21.19707
Ar 9.31371 12.20550 17.79035
Ar 8.94427 16.18118 17.81623
Ar 5.21885 16.52508 1.49266
Ar 5.10012 20.06535 2.87734
Ar 8.93230 17.08054 1.99760
Ar 8.29316 20.88987 0.31167
Ar 5.86344 17.77161 5.31395
Ar 4.89403 18.49079 8.48907
Ar 8.45129 17.73106 7.86639
Ar 8.59874 20.34449 4.62350
Ar 5.27943 16.51104 11.35402
Ar 5.17551 19.72787 13.16468
Ar 7.66233 16.94882 14.25589
Ar 8.68852 19.68535 11.08821
Ar 5.18379 17.45093 18.16597
Ar 5.48024 19.31308 21.56267
Ar 9.00777 18.38721 20.72155
Ar 8.29570 19.23236 16.31870
Ar 12.33547 0.60508 0.49779
Ar 10.98459 3.90694 3.30076
Ar 14.37830 0.13186 3.20139
Ar 13.16014 4.08049 0.54323
Ar 10.86849 22.65348 5.95183
Ar 10.42102 3.03098 7.52536
Ar 14.01019 0.88535 7.29284
Ar 14.00901 4.09579 4.65489
Ar 11.32651 0.24721 10.72267
Ar 11.05700 2.37000 14.13052
Ar 14.33743 0.12849 13.17266
Ar 13.72980 3.25361 10.73183
Ar 10.73596 22.06646 16.66175
Ar 12.02394 1.25185 19.68893
Ar 14.74642 21.40927 19.55775
Ar 14.04529 1.81106 16.40683
Ar 8.99778 5.70728 1.02281
Ar 9.98113 10.22469 2.08560
Ar 11.89781 7.36291 4.42745
Ar 11.92897 7.71661 0.41805
Ar 10.72999 6.71691 8.10486
Ar 11.60090 9.57150 9.54686
Ar 14.19697 5.10622 7.73188
Ar 14.53489 8.38040 7.52153
Ar 10.74345 5.45023 12.09415
Ar 11.76119 8.56999 14.82950
Ar 13.81289 4.78264 14.61713
Ar 14.18848 7.25570 11.13341
Ar 11.13896 4.78714 16.76474
Ar 11.54294 7.56570 19.08121
Ar 14.04172 5.16148 20.22289
Ar 14.65712 7.70543 17.16817
Ar 13.29766 10.97754 22.43944
Ar 13.03772 13.75808 4.23256
Ar 14.07526 10.35599 3.27567
Ar 14.16799 14.67842 22.11685
Ar 11.11062 11.31185 6.67151
Ar 11.85908 14.89451 8.53007
Ar 14.91244 11.11962 10.69401
Ar 14.79042 13.08887 7.25708
Ar 11.67928 12.63986 11.22450
Ar 11.03638 15.45257 14.83731
Ar 15.56928 10.28419 13.99530
Ar 15.23911 15.02077 10.00396
Ar 12.44792 12.03509 15.51758
Ar 10.01056 13.88476 20.78050
Ar 13.19056 10.62731 18.97591
Ar 12.83173 14.62835 17.86805
Ar 12.20301 17.73501 0.80083
Ar 12.11824 20.43468 2.95339
Ar 15.17941 17.75449 4.26678
Ar 14.42035 20.56162 0.63168
Ar 11.60061 17.21222 4.78601
Ar 11.55883 20.05953 8.52974
Ar 15.43780 17.88056 7.89456
Ar 14.29818 20.55187 6.07913
Ar 12.58822 17.66459 11.60617
Ar 11.72754 20.30034 13.93987
Ar 15.14847 16.75798 13.91315
Ar 14.75006 21.63444 9.80923
Ar 12.17707 18.43148 17.82906
Ar 11.43740 20.68378 20.36445
Ar 14.74144 17.97188 20.22100
Ar 14.73436 20.77439 16.08739
Ar 17.41607 0.32751 0.48057
Ar 17.40223 3.61427 2.89212
Ar 20.92412 0.92855 1.56928
Ar 18.39386 3.76491 21.47851
Ar 18.92354 0.80910 4.82422
Ar 16.98909 2.87019 8.01159
Ar 20.19775 1.62076 8.79726
Ar 20.58299 4.34088 3.87791
Ar 17.65315 0.15806 11.91535
Ar 17.13897 2.47815 14.70163
Ar 19.20632 22.45062 15.10602
Ar 20.60117 2.57281 11.88707
Ar 17.30283 0.05611 17.78215
Ar 15.37281 1.92488 19.88289
Ar 20.11782 0.16364 20.60894
Ar 20.23993 2.48966 17.64946
Ar 15.99673 6.27698 0.90508
Ar 18.51942 9.62295 1.06582
Ar 19.95620 6.01509 1.01824
Ar 19.46635 7.83474 21.09506
Ar 16.51192 7.69518 4.00225
Ar 17.61192 6.78507 8.08129
Ar 21.17566 5.23391 7.79078
Ar 19.78447 8.77697 4.58639
Ar 17.11066 4.60167 11.11881
Ar 16.86800 6.42506 14.35394
Ar 20.07218 4.67671 14.94015
Ar 20.35437 6.46265 11.76034
Ar 17.00901 4.36591 17.77804
Ar 15.57608 8.68545 20.84118
Ar 20.90936 5.27894 19.41314
Ar 18.33600 7.78303 17.54165
Ar 17.03066 11.75963 21.39573
Ar 16.46925 12.67338 2.12824
Ar 21.40411 12.24600 1.97132
Ar 19.12796 14.83950 22.72603
Ar 16.94982 10.60386 6.39690
Ar 17.62816 12.77462 9.50118
Ar 20.82483 9.69384 7.84661
Ar 19.53661 12.55287 5.04759
Ar 17.58514 8.63836 11.06627
Ar 16.54732 13.30312 13.47949
Ar 19.18731 10.60714 14.42052
Ar 20.64898 13.16775 11.96425
Ar 16.23768 11.68631 17.12944
Ar 16.01815 14.98602 19.07594
Ar 20.63467 11.29585 20.86336
Ar 19.17865 13.70515 17.00916
Ar 16.32045 17.00811 0.79464
Ar 17.31271 20.64470 3.28710
Ar 21.05725 15.53722 3.54669
Ar 19.60492 18.36935 1.23055
Ar 17.29748 15.50659 6.05073
Ar 17.42348 21.71550 7.64698
Ar 19.21368 18.41742 8.68223
Ar 19.39050 18.18944 5.24982
Ar 17.65677 16.63551 11.68460
Ar 17.71577 19.56948 13.62705
Ar 19.18178 16.28900 14.68868
Ar 20.92244 20.83361 10.90728
Ar 16.46624 17.65837 17.17664
Ar 17.58438 20.31091 21.17199
Ar 19.22207 17.56418 20.46150
Ar 19.64606 20.05311 17.81418
256
frame 68
Ar 0.78326 0.10858 21.80846
Ar 22.65055 3.23761 22.28022
Ar 2.96495 22.81071 2.95010
Ar 3.53202 4.26080 1.53432
Ar 0.09329 1.73303 4.72032
Ar 0.71615 3.53790 10.15710
Ar 2.72928 1.11748 7.49746
Ar 4.20764 3.23168 4.83337
Ar 1.16116 0.10420 10.71405
Ar 22.34964 1.92973 15.04603
Ar 2.37902 21.92410 14.52050
Ar 2.93062 2.26221 13.73201
Ar 0.15425 21.71289 17.95752
Ar 2.43473 3.13661 20.62271
Ar 3.24602 21.40706 19.45288
Ar 2.89004 1.87380 17.42093
Ar 0.17812 7.12943 21.60628
Ar 22.50082 9.05875 2.75996
Ar 3.69228 8.19389 22.35475
Ar 6.20045 10.78230 21.22241
Ar 1.37182 5.77349 3.67746
Ar 1.42412 7.13919 9.99177
Ar 3.82917 6.66146 7.32038
Ar 2.27641 9.08934 5.28299
Ar 0.27441 5.11057 13.34050
Ar 21.61952 8.13662 14.90682
Ar 4.38481 5.58280 15.51027
Ar 2.34442 7.99962 13.49310
Ar 1.05910 4.98419 17.10122
Ar 22.56877 8.46790 18.37734
Ar 4.09756 7.53854 18.86541
Ar 3.33144 9.66827 16.55963
Ar 1.30760 10.99822 22.16998
Ar 1.79540 13.42935 2.62029
Ar 4.44568 11.11031 2.63628
Ar 3.44968 14.10996 22.09712
Ar 0.22459 11.97882 5.80223
Ar 20.89632 13.45338 8.31456
Ar 2.04449 12.02298 8.96025
Ar 2.34676 14.86074 5.90411
Ar 21.80269 9.50331 11.36619
Ar 22.68253 14.72673 14.89463
Ar 2.53626 11.74183 13.00687
Ar 2.21490 15.00920 10.71956
Ar 22.50720 11.68222 15.99092
Ar 22.13076 14.75497 20.02341
Ar 1.80127 12.01031 18.80113
Ar 2.33950 14.93736 17.42880
Ar 22.44235 16.27521 0.55328
Ar 22.26974 20.10706 2.98725
Ar 2.10015 17.59946 3.50558
Ar 2.28781 19.84732 0.90586
Ar 21.62890 16.47202 7.23064
Ar 22.01093 21.43317 7.13089
Ar 1.63485 17.92646 8.31897
Ar 2.00262 20.79975 5.50100
Ar 21.37974 16.88751 11.43251
Ar 21.94776 19.05853 14.65998
Ar 3.18361 16.63263 14.00907
Ar 1.77739 19.49618 11.61913
Ar 21.68330 17.14316 17.71105
Ar 22.20658 19.40219 21.88950
Ar 2.37161 17.22147 20.61576
Ar 2.01180 18.75078 16.92641
Ar 4.42682 22.64808 22.67654
Ar 6.55056 2.25644 1.82687
Ar 9.56189 0.75616 2.98039
Ar 8.90502 0.82718 21.85423
Ar 5.60087 22.00757 5.58861
Ar 5.65309 2.99150 8.44202
Ar 7.79003 22.51904 8.74480
Ar 7.90151 3.17954 5.03563
Ar 4.80367 22.29331 10.84128
Ar 6.39661 2.54891 15.33202
Ar 8.27444 22.19649 13.96443
Ar 8.25855 2.66728 11.73369
Ar 5.66467 21.62203 16.36559
Ar 5.96708 1.16648 19.85359
Ar 7.91023 21.34800 19.09946
Ar 8.87773 1.63244 17.76849
Ar 5.87874 5.10721 22.07075
Ar 7.14229 8.63158 0.84055
Ar 8.39510 7.26436 5.15803
Ar 10.07644 9.79020 21.46965
Ar 5.24434 7.07255 3.64606
Ar 4.71640 9.02263 10.73797
Ar 7.50996 6.49910 10.00482
Ar 7.07938 9.48323 7.77403
Ar 3.70284 5.29849 12.02704
Ar 5.77790 8.94092 14.28950
Ar 7.22877 5.42010 13.39397
Ar 9.07590 9.08848 12.60537
Ar 6.30953 4.36842 18.44936
Ar 7.55813 7.52034 20.26928
Ar 10.29307 4.19112 20.46769
Ar 8.14908 7.40230 16.32381
Ar 7.45163 12.74195 1.03012
Ar 5.90427 14.17612 3.99991
Ar 7.69480 10.79579 4.67928
Ar 10.78043 14.04044 1.45437
Ar 4.31731 11.62332 6.54674
Ar 5.71365 15.17623 7.63968
Ar 8.64779 12.45563 9.31081
Ar 9.17229 13.92181 5.58593
Ar 5.83918 12.44554 11.59294
Ar 5.37990 14.28060 14.92262
Ar 8.90103 12.50107 13.75170
Ar 9.05276 15.71548 10.75116
Ar 5.49563 12.53613 18.34683
Ar 6.77602 15.34265 21.27814
Ar 9.32524 12.28156 17.70540
Ar 8.94301 16.23767 17.75440
Ar 5.25121 16.48076 1.49676
Ar 5.07349 20.07298 2.81205
Ar 8.89715 17.27480 1.99834
Ar 8.21487 20.83045 0.44966
Ar 5.85976 17.76904 5.30270
Ar 5.03265 18.57975 8.53866
Ar 8.52565 17.72859 7.75313
Ar 8.70417 20.36895 4.57340
Ar 5.42731 16.50252 11.28807
Ar 5.12045 19.69528 13.08731
Ar 7.60379 16.74716 14.30763
Ar 8.72340 19.58763 11.16718
Ar 5.25743 17.55349 18.24531
Ar 5.47010 19.42749 21.55997
Ar 9.03241 18.35288 20.74993
Ar 8.44043 19.29455 16.33942
Ar 12.27850 0.50194 0.49692
Ar 10.94090 4.01545 3.37152
Ar 14.44199 0.16782 3.24522
Ar 13.21843 4.06460 0.62382
Ar 10.83245 22.66226 5.99563
Ar 10.37958 3.18175 7.62547
Ar 14.04643 0.88006 7.15840
Ar 14.00827 4.23598 4.62731
Ar 11.34428 0.26493 10.83418
Ar 11.01739 2.33727 14.09473
Ar 14.32031 0.00241 13.20435
Ar 13.80173 3.31154 10.84690
Ar 10.78531 22.14446 16.60802
Ar 12.01144 1.28485 19.66011
Ar 14.75208 21.41676 19.57396
Ar 14.02871 1.68565 16.53028
Ar 8.91704 5.65579 0.97742
Ar 10.01190 10.23594 2.05448
Ar 11.90651 7.30999 4.46942
Ar 11.94353 7.75216 0.48058
Ar 10.70282 6.78451 8.09435
Ar 11.60510 9.64672 9.57829
Ar 14.27152 5.17426 7.72975
Ar 14.55538 8.36160 7.47492
Ar 10.64036 5.50242 12.12900
Ar 11.85815 8.57343 14.84306
Ar 13.90909 4.79220 14.59116
Ar 14.32946 7.11365 11.10204
Ar 11.12622 4.71765 16.79905
Ar 11.49029 7.53722 18.97436
Ar 14.05272 5.10028 20.21989
Ar 14.77036 7.60995 17.13511
Ar 13.36269 10.87726 22.39768
Ar 12.99999 13.82770 4.27875
Ar 14.05450 10.28969 3.35461
Ar 14.29823 14.61140 22.08371
Ar 11.14066 11.27704 6.70269
Ar 11.79773 14.86568 8.49666
Ar 14.86072 10.95940 10.75926
Ar 14.75720 12.98413 7.30847
Ar 11.77391 12.66424 11.29986
Ar 11.01498 15.51267 14.80971
Ar 15.58576 10.26339 13.95085
Ar 15.21253 15.04375 9.89416
Ar 12.48565 12.03480 15.52814
Ar 10.02097 14.00804 20.76751
Ar 13.07652 10.57000 18.99157
Ar 12.72642 14.68738 17.89171
Ar 12.28747 17.70941 0.67082
Ar 12.10649 20.37545 2.97778
Ar 15.22585 17.64713 4.33232
Ar 14.55348 20.46609 0.55930
Ar 11.69930 17.17361 4.72502
Ar 11.54836 19.99072 8.49992
Ar 15.42133 17.80249 7.86094
Ar 14.28191 20.64589 6.15379
Ar 12.52211 17.64776 11.60291
Ar 11.77563 20.31061 13.96332
Ar 15.05223 16.75572 13.90903
Ar 14.71045 21.75089 9.79038
Ar 12.25972 18.39044 17.87552
Ar 11.52054 20.76647 20.32710
Ar 14.72978 18.04047 20.20753
Ar 14.72765 20.80443 16.10634
Ar 17.37690 0.35839 0.47368
Ar 17.43872 3.62599 2.92266
Ar 20.83274 1.04861 1.53967
Ar 18.33737 3.89315 21.44991
Ar 18.92646 0.82551 4.81478
Ar 17.13336 2.83251 8.02049
Ar 20.10284 1.62281 8.82923
Ar 20.62179 4.26234 3.96116
Ar 17.58636 0.11667 11.98581
Ar 17.14440 2.46942 14.64306
Ar 19.30140 22.39464 15.10948
Ar 20.56995 2.52994 11.97895
Ar 17.15447 0.10066 17.72563
Ar 15.36682 1.98013 19.87711
Ar 20.17789 0.27046 20.67081
Ar 20.26031 2.53429 17.61249
Ar 16.04370 6.30950 0.97178
Ar 18.41340 9.67988 1.21572
Ar 20.00051 6.02870 1.03349
Ar 19.46148 7.92033 21.10929
Ar 16.45095 7.67019 3.97550
Ar 17.55332 6.66738 8.02676
Ar 21.20749 5.30455 7.76110
Ar 19.74937 8.81787 4.67107
Ar 17.09822 4.59246 11.16558
Ar 16.98083 6.39200 14.36152
Ar 20.11409 4.61610 14.88176
Ar 20.33946 6.43353 11.69630
Ar 17.03860 4.25503 17.77466
Ar 15.51234 8.68167 20.88829
Ar 20.85982 5.31075 19.49948
Ar 18.29626 7.71934 17.48544
Ar 16.99016 11.67384 21.35541
Ar 16.45028 12.67329 1.99468
Ar 21.48407 12.43791 1.96421
Ar 19.06852 14.84230 22.81795
Ar 17.03336 10.51313 6.29139
Ar 17.74785 12.70901 9.56175
Ar 20.83518 9.73798 7.78767
Ar 19.47400 12.60384 5.10250
Ar 17.62593 8.57220 11.03609
Ar 16.73103 13.44094 13.60989
Ar 19.28500 10.64004 14.42612
Ar 20.65725 13.12577 11.97451
Ar 16.29345 11.72035 17.06454
Ar 16.04171 14.96268 18.99901
Ar 20.69814 11.25604 20.95755
Ar 19.10013 13.65422 16.93903
Ar 16.24968 17.01422 0.73034
Ar 17.18958 20.67838 3.27270
Ar 21.03966 15.46901 3.51733
Ar 19.70372 18.40524 1.22840
Ar 17.24103 15.49474 6.06868
Ar 17.48293 21.84548 7.59480
Ar 19.07547 18.43169 8.80738
Ar 19.35952 18.26910 5.32823
Ar 17.64249 16.70845 11.63046
Ar 17.76869 19.52262 13.58788
Ar 19.19977 16.34329 14.68897
Ar 20.92518 20.86651 10.94382
Ar 16.42033 17.66264 17.15366
Ar 17.39912 20.30974 21.27032
Ar 19.25108 17.53293 20.45967
Ar 19.75796 20.09248 17.75823
256
frame 69
Ar 0.84135 0.10644 21.88313
Ar 22.56985 3.25868 22.36567
Ar 2.99222 0.04148 2.88136
Ar 3.52709 4.27432 1.52647
Ar 0.06684 1.68979 4.80709
Ar 0.69287 3.53363 10.13729
Ar 2.67019 1.11630 7.55487
Ar 4.14104 3.23609 4.83047
Ar 1.07556 0.09210 10.74878
Ar 22.33554 1.89168 15.02117
Ar 2.58621 21.89025 14.46316
Ar 2.91608 2.25822 13.71983
Ar 0.23098 21.64945 17.97514
Ar 2.38508 3.10801 20.53244
Ar 3.27073 21.30044 19.42201
Ar 2.84683 1.86507 17.35518
Ar 0.20852 7.05089 21.58054
Ar 22.56682 9.14044 2.68132
Ar 3.72735 8.25089 22.38363
Ar 6.15313 10.73885 21.17912
Ar 1.20218 5.66495 3.78038
Ar 1.39370 7.03569 9.88892
Ar 3.78142 6.69048 7.34573
Ar 2.29185 9.05736 5.34109
Ar 0.31370 5.19673 13.30720
Ar 21.51229 8.15369 14.91852
Ar 4.36462 5.44402 15.43804
Ar 2.33295 7.96612 13.48398
Ar 1.14395 4.93190 17.07405
Ar 22.62793 8.41654 18.36570
Ar 4.14542 7.54657 18.78972
Ar 3.30103 9.72949 16.63697
Ar 1.20953 10.99177 22.21537
Ar 1.78209 13.44512 2.47573
Ar 4.47846 11.09820 2.62525
Ar 3.48178 14.22432 22.12031
Ar 0.21216 11.96190 5.72648
Ar 20.86785 13.40235 8.31820
Ar 2.12694 12.20651 8.97582
Ar 2.18880 14.99837 5.84677
Ar 21.68316 9.49261 11.35340
Ar 22.70643 14.68908 14.84336
Ar 2.51606 11.72831 12.99091
Ar 2.18013 15.00858 10.60477
Ar 22.43318 11.59575 15.96941
Ar 22.15893 14.77721 20.01824
Ar 1.75270 11.88618 18.72991
Ar 2.32357 14.94928 17.36877
Ar 22.50127 16.26642 0.65156
Ar 22.14912 19.98567 2.96865
Ar 2.13408 17.53361 3.50407
Ar 2.32111 19.68570 0.86242
Ar 21.57810 16.41074 7.22860
Ar 22.00617 21.31921 7.11677
Ar 1.63297 17.94719 8.38086
Ar 2.08806 20.83605 5.33972
Ar 21.34151 16.89509 11.41282
Ar 21.91813 19.06720 14.68371
Ar 3.13951 16.56640 13.94851
Ar 1.86696 19.56796 11.72043
Ar 21.73122 17.15264 17.68929
Ar 22.26724 19.51129 21.85011
Ar 2.39157 17.24449 20.62464
Ar 1.97714 18.78087 16.97569
Ar 4.45755 22.73890 22.68985
Ar 6.58177 2.27016 1.82222
Ar 9.58147 0.68662 2.98031
Ar 8.91331 0.83106 21.81837
Ar 5.53595 22.04429 5.53760
Ar 5.63394 2.95059 8.31721
Ar 7.70192 22.57682 8.74414
Ar 7.85285 3.27656 5.09703
Ar 4.79293 22.32884 10.88435
Ar 6.30758 2.54977 15.31536
Ar 8.25633 22.22561 13.96392
Ar 8.26198 2.67643 11.69227
Ar 5.56944 21.68389 16.24282
Ar 5.96345 1.08080 19.81801
Ar 7.84110 21.33725 19.09038
Ar 8.92845 1.66587 17.72392
Ar 5.90517 5.04167 22.00790
Ar 7.06742 8.58971 0.74495
Ar 8.42220 7.27383 5.19219
Ar 10.16169 9.90260 21.49517
Ar 5.16814 7.00285 3.66821
Ar 4.67095 9.06809 10.88242
Ar 7.53962 6.56976 10.10684
Ar 7.00837 9.35429 7.78856
Ar 3.68502 5.32816 12.03251
Ar 5.77722 8.89103 14.39304
Ar 7.26310 5.41542 13.37278
Ar 8.99820 9.05998 12.61318
Ar 6.36743 4.36558 18.43737
Ar 7.54666 7.57468 20.29854
Ar 10.23010 4.21050 20.55904
Ar 8.22321 7.44372 16.38871
Ar 7.45289 12.71718 1.18049
Ar 5.83445 14.18559 4.02900
Ar 7.62291 10.80709 4.66915
Ar 10.73412 14.00708 1.45985
Ar 4.35908 11.74727 6.55535
Ar 5.67627 15.12132 7.67563
Ar 8.63183 12.53116 9.33071
Ar 9.19807 13.96765 5.58966
Ar 5.71428 12.32152 11.63233
Ar 5.40265 14.31536 14.79121
Ar 8.99298 12.65056 13.67728
Ar 9.02915 15.72444 10.62177
Ar 5.59062 12.58224 18.43818
Ar 6.79210 15.34275 21.34430
Ar 9.33727 12.35265 17.61110
Ar 8.94374 16.26049 17.71082
Ar 5.27190 16.45878 1.49506
Ar 5.08394 20.06355 2.72504
Ar 8.85332 17.47156 2.00241
Ar 8.13108 20.71574 0.63768
Ar 5.85877 17.76210 5.25800
Ar 5.17876 18.71091 8.60443
Ar 8.61412 17.72792 7.63580
Ar 8.79444 20.36296 4.51324
Ar 5.59519 16.47915 11.22441
Ar 5.08209 19.64895 13.03162
Ar 7.55635 16.54706 14.31901
Ar 8.75699 19.48791 11.24937
Ar 5.34191 17.65556 18.32070
Ar 5.45551 19.51908 21.55302
Ar 9.05150 18.29152 20.78394
Ar 8.60178 19.39502 16.36080
Ar 12.21309 0.39872 0.47964
Ar 10.86402 4.11875 3.43738
Ar 14.52022 0.23375 3.30871
Ar 13.27321 4.04141 0.71249
Ar 10.81551 22.67654 6.07169
Ar 10.34853 3.32678 7.73607
Ar 14.07439 0.98247 7.01784
Ar 14.05243 4.35409 4.55012
Ar 11.35463 0.28269 10.94439
Ar 10.98219 2.28970 14.05982
Ar 14.28743 22.71819 13.24035
Ar 13.85868 3.35558 10.96800
Ar 10.88666 22.18558 16.56314
Ar 11.99046 1.32217 19.62120
Ar 14.72543 21.43631 19.58513
Ar 14.00029 1.55921 16.65268
Ar 8.84830 5.59220 0.93248
Ar 10.06525 10.26541 2.05713
Ar 11.92946 7.27176 4.51138
Ar 11.99721 7.73239 0.56447
Ar 10.67215 6.82372 8.06739
Ar 11.61944 9.71648 9.65846
Ar 14.32998 5.17904 7.79611
Ar 14.54842 8.42815 7.42273
Ar 10.55265 5.56316 12.15944
Ar 11.96152 8.55957 14.86132
Ar 13.99895 4.79939 14.55007
Ar 14.45740 6.97100 11.07492
Ar 11.10277 4.64446 16.84154
Ar 11.42226 7.49101 18.87083
Ar 14.05841 5.07480 20.20070
Ar 14.87034 7.51451 17.10247
Ar 13.42517 10.81631 22.39963
Ar 12.96766 13.89243 4.32515
Ar 14.02112 10.22294 3.43588
Ar 14.40348 14.52180 22.04920
Ar 11.17993 11.24477 6.69835
Ar 11.73134 14.84636 8.44378
Ar 14.80035 10.80420 10.78198
Ar 14.70738 12.85392 7.33666
Ar 11.86497 12.70861 11.40107
Ar 11.00064 15.57632 14.76821
Ar 15.59062 10.18290 13.93707
Ar 15.15340 15.07230 9.83003
Ar 12.52718 12.03552 15.52747
Ar 10.04676 14.12983 20.75400
Ar 12.96649 10.54462 18.97639
Ar 12.60855 14.74798 17.92955
Ar 12.37177 17.66225 0.52619
Ar 12.06271 20.32015 3.02804
Ar 15.26474 17.55173 4.36056
Ar 14.70143 20.37169 0.46939
Ar 11.77917 17.13826 4.67209
Ar 11.53418 19.91690 8.47531
Ar 15.39706 17.75236 7.85058
Ar 14.26308 20.68470 6.19209
Ar 12.44415 17.62611 11.57949
Ar 11.82023 20.29888 13.95863
Ar 14.94147 16.75137 13.92739
Ar 14.67017 21.83673 9.80568
Ar 12.32128 18.34580 17.88381
Ar 11.57479 20.84497 20.31882
Ar 14.71909 18.08996 20.23945
Ar 14.71959 20.82009 16.11743
Ar 17.32827 0.40741 0.47334
Ar 17.44687 3.62675 2.94251
Ar 20.73732 1.15952 1.52226
Ar 18.26308 4.00668 21.42831
Ar 18.93661 0.84460 4.80568
Ar 17.23143 2.80890 8.00760
Ar 20.05457 1.58771 8.82523
Ar 20.68042 4.19298 4.06900
Ar 17.53786 0.07439 12.02646
Ar 17.14329 2.46890 14.57962
Ar 19.42985 22.34609 15.09145
Ar 20.53273 2.49451 12.11008
Ar 17.04628 0.14978 17.65649
Ar 15.38052 2.04365 19.91927
Ar 20.22849 0.37575 20.72623
Ar 20.25631 2.53899 17.60769
Ar 16.08818 6.33550 0.98666
Ar 18.31121 9.73247 1.37948
Ar 20.05122 6.03942 1.06661
Ar 19.42399 8.03853 21.10185
Ar 16.38739 7.64606 3.99343
Ar 17.52179 6.54256 7.96199
Ar 21.23643 5.37747 7.73302
Ar 19.69296 8.84258 4.75126
Ar 17.10162 4.58290 11.22079
Ar 17.10726 6.37522 14.35911
Ar 20.12105 4.58490 14.83597
Ar 20.31095 6.37669 11.62008
Ar 17.06726 4.15895 17.76685
Ar 15.45666 8.61801 20.91904
Ar 20.83189 5.33457 19.56170
Ar 18.28017 7.66481 17.43437
Ar 16.96071 11.62805 21.30399
Ar 16.43152 12.68825 1.86893
Ar 21.52388 12.59843 1.92749
Ar 19.01118 14.82487 0.08963
Ar 17.11478 10.41384 6.19416
Ar 17.87614 12.62584 9.62465
Ar 20.84775 9.78444 7.75384
Ar 19.41837 12.66277 5.14482
Ar 17.66962 8.52594 11.01520
Ar 16.93071 13.61156 13.73124
Ar 19.36162 10.68517 14.42780
Ar 20.66577 13.08811 11.99340
Ar 16.32396 11.73749 17.01757
Ar 16.09117 14.88438 18.94798
Ar 20.76342 11.22898 21.04982
Ar 19.05263 13.61011 16.87923
Ar 16.18860 17.04541 0.67729
Ar 17.07492 20.70192 3.26001
Ar 21.01087 15.42168 3.52954
Ar 19.76216 18.43968 1.24217
Ar 17.21273 15.43780 6.09444
Ar 17.55604 21.96769 7.54141
Ar 18.92907 18.45782 8.94438
Ar 19.31914 18.37607 5.37116
Ar 17.64998 16.76612 11.54268
Ar 17.81678 19.49579 13.56241
Ar 19.23088 16.40274 14.70253
Ar 20.92282 20.90001 10.98581
Ar 16.39754 17.71402 17.09282
Ar 17.25935 20.30527 21.37885
Ar 19.28667 17.47957 20.44427
Ar 19.85122 20.13261 17.71303
256
frame 70
Ar 0.91503 0.06367 21.95875
Ar 22.41486 3.34207 22.49129
Ar 3.00150 0.14924 2.81024
Ar 3.50189 4.27943 1.50602
Ar 0.05985 1.62286 4.89980
Ar 0.67068 3.52954 10.10757
Ar 2.60164 1.10577 7.60942
Ar 4.07321 3.23684 4.83888
Ar 0.99058 0.08123 10.78960
Ar 22.36856 1.82560 14.99201
Ar 2.75763 21.81198 14.41614
Ar 2.90712 2.30165 13.68686
Ar 0.27616 21.61441 17.98261
Ar 2.41612 3.09283 20.41294
Ar 3.31905 21.19498 19.39592
Ar 2.81962 1.82778 17.27053
Ar 0.26008 6.97898 21.58745
Ar 22.64200 9.21996 2.58697
Ar 3.75138 8.30001 22.41941
Ar 6.09672 10.71438 21.13715
Ar 1.02906 5.56562 3.89455
Ar 1.34179 6.95140 9.79251
Ar 3.76309 6.69717 7.37414
Ar 2.30040 9.02995 5.38292
Ar 0.36954 5.26079 13.27924
Ar 21.42599 8.13416 14.93014
Ar 4.33030 5.32534 15.39327
Ar 2.30098 7.99381 13.50177
Ar 1.21052 4.89455 17.04815
Ar 22.68968 8.37737 18.34594
Ar 4.21461 7.48434 18.77357
Ar 3.24134 9.84177 16.64063
Ar 1.12955 10.98432 22.27800
Ar 1.82635 13.48840 2.34633
Ar 4.50947 11.06555 2.60988
Ar 3.50443 14.31367 22.13981
Ar 0.19684 11.94715 5.63769
Ar 20.86807 13.31728 8.33785
Ar 2.17563 12.32780 8.99119
Ar 2.03810 15.12368 5.81396
Ar 21.57746 9.50968 11.34499
Ar 22.72209 14.70493 14.75994
Ar 2.47867 11.71504 12.98377
Ar 2.14315 15.07148 10.53018
Ar 22.35973 11.46310 15.95902
Ar 22.19361 14.76696 20.04169
Ar 1.69089 11.75942 18.70790
Ar 2.32624 14.99410 17.30893
Ar 22.59693 16.25486 0.71645
Ar 22.05495 19.89039 2.97797
Ar 2.16831 17.46142 3.50724
Ar 2.35010 19.53718 0.78307
Ar 21.53333 16.38335 7.20539
Ar 21.97438 21.20910 7.11837
Ar 1.64187 17.98007 8.44223
Ar 2.18153 20.83363 5.20416
Ar 21.31394 16.90258 11.39378
Ar 21.88800 19.08671 14.68917
Ar 3.05260 16.53827 13.88132
Ar 1.93564 19.62179 11.81499
Ar 21.77428 17.16323 17.64818
Ar 22.31188 19.62898 21.77439
Ar 2.40331 17.28183 20.62818
Ar 1.96737 18.80120 17.01537
Ar 4.49858 0.00721 22.69164
Ar 6.60828 2.28430 1.80999
Ar 9.59767 0.62015 2.95449
Ar 8.92969 0.86001 21.77559
Ar 5.48180 22.09927 5.50845
Ar 5.62697 2.91840 8.19953
Ar 7.62733 22.63262 8.73831
Ar 7.79019 3.37421 5.16773
Ar 4.77407 22.38407 10.91829
Ar 6.22569 2.51971 15.29236
Ar 8.24495 22.26166 13.94823
Ar 8.26576 2.64919 11.62204
Ar 5.47885 21.74657 16.14204
Ar 5.91527 1.04880 19.77496
Ar 7.80351 21.28127 19.09428
Ar 8.93878 1.75767 17.69839
Ar 5.92050 4.96279 21.92865
Ar 7.00037 8.54420 0.70857
Ar 8.44959 7.27037 5.21899
Ar 10.21155 10.03530 21.47131
Ar 5.08177 6.93281 3.68541
Ar 4.61987 9.09474 11.01170
Ar 7.56474 6.63856 10.19144
Ar 6.93227 9.22547 7.82434
Ar 3.70704 5.31944 11.98854
Ar 5.78032 8.84605 14.47288
Ar 7.28098 5.44414 13.38470
Ar 8.92104 9.03033 12.61381
Ar 6.42833 4.37759 18.42414
Ar 7.55803 7.62156 20.29155
Ar 10.15667 4.24537 20.65343
Ar 8.31445 7.47400 16.46962
Ar 7.44787 12.69058 1.32226
Ar 5.75921 14.18911 4.08125
Ar 7.54654 10.82719 4.64474
Ar 10.70084 13.98156 1.47079
Ar 4.43596 11.87132 6.52913
Ar 5.64125 15.05344 7.72340
Ar 8.61615 12.58549 9.33782
Ar 9.22211 14.03514 5.59225
Ar 5.60726 12.22051 11.66682
Ar 5.37719 14.22590 14.69535
Ar 9.07563 12.80327 13.60590
Ar 9.01383 15.74640 10.51735
Ar 5.67489 12.65649 18.49385
Ar 6.80824 15.34790 21.39248
Ar 9.35129 12.42141 17.51238
Ar 8.94495 16.25398 17.68664
Ar 5.28126 16.46527 1.49320
Ar 5.13187 20.04309 2.62999
Ar 8.81172 17.65352 2.01192
Ar 8.05594 20.60335 0.84307
Ar 5.85722 17.75096 5.19561
Ar 5.32331 18.87279 8.67338
Ar 8.71150 17.72680 7.51269
Ar 8.85612 20.32646 4.45310
Ar 5.75781 16.43908 11.17021
Ar 5.07891 19.58309 12.99967
Ar 7.58105 16.43257 14.30219
Ar 8.78860 19.38847 11.33254
Ar 5.43336 17.75747 18.39016
Ar 5.44200 19.58313 21.54622
Ar 9.07052 18.21956 20.82250
Ar 8.76708 19.50009 16.35696
Ar 12.15414 0.29406 0.45370
Ar 10.76391 4.20424 3.49746
Ar 14.59161 0.32503 3.37546
Ar 13.32406 4.00979 0.80446
Ar 10.81346 22.70030 6.17845
Ar 10.32433 3.45442 7.85304
Ar 14.10111 1.18061 6.88341
Ar 14.13454 4.45533 4.44484
Ar 11.35550 0.29778 11.04867
Ar 10.95473 2.23509 14.03123
Ar 14.24372 22.63974 13.27786
Ar 13.89214 3.37683 11.09230
Ar 11.03303 22.19981 16.53230
Ar 11.96432 1.37503 19.58067
Ar 14.68489 21.48415 19.58072
Ar 13.95511 1.44870 16.75411
Ar 8.79776 5.52250 0.89428
Ar 10.12748 10.30601 2.09859
Ar 11.96667 7.25986 4.55586
Ar 12.07611 7.66502 0.66140
Ar 10.64449 6.85680 8.03462
Ar 11.62982 9.76627 9.77336
Ar 14.36210 5.12451 7.90176
Ar 14.51339 8.55495 7.36908
Ar 10.49346 5.62946 12.18402
Ar 12.06541 8.52965 14.87971
Ar 14.07517 4.79850 14.50372
Ar 14.56370 6.84138 11.05343
Ar 11.07686 4.56196 16.88191
Ar 11.34132 7.43396 18.77637
Ar 14.04729 5.09796 20.17297
Ar 14.94024 7.42070 17.07320
Ar 13.48325 10.80540 22.45028
Ar 12.94573 13.93814 4.37030
Ar 13.97636 10.16653 3.51631
Ar 14.48174 14.41070 22.01142
Ar 11.22332 11.21629 6.65988
Ar 11.66593 14.83168 8.37310
Ar 14.74654 10.66132 10.75402
Ar 14.64999 12.69539 7.34608
Ar 11.95313 12.77903 11.51966
Ar 11.00075 15.64404 14.71507
Ar 15.59984 10.07155 13.95980
Ar 15.07729 15.08231 9.81701
Ar 12.57264 12.04233 15.51729
Ar 10.08811 14.24753 20.73599
Ar 12.86588 10.54899 18.93510
Ar 12.48831 14.80241 17.97974
Ar 12.44725 17.60001 0.37573
Ar 12.01898 20.27546 3.07829
Ar 15.29409 17.48091 4.34409
Ar 14.77319 20.29453 0.43135
Ar 11.82999 17.11413 4.63018
Ar 11.51794 19.84030 8.45869
Ar 15.36192 17.74875 7.85483
Ar 14.24667 20.66143 6.19763
Ar 12.35448 17.59907 11.53578
Ar 11.85428 20.25585 13.92455
Ar 14.82724 16.74523 13.95705
Ar 14.63205 21.90337 9.83066
Ar 12.35486 18.30810 17.85309
Ar 11.57048 20.89551 20.33966
Ar 14.71623 18.10246 20.30684
Ar 14.70792 20.81086 16.12500
Ar 17.26976 0.47596 0.47896
Ar 17.43508 3.61994 2.95265
Ar 20.63351 1.25400 1.52745
Ar 18.16826 4.10524 21.41927
Ar 18.95590 0.86731 4.79071
Ar 17.24625 2.81930 7.96560
Ar 20.09515 1.50960 8.82131
Ar 20.73530 4.14150 4.18752
Ar 17.51123 0.02920 12.03607
Ar 17.13479 2.47434 14.51694
Ar 19.57496 22.31470 15.05396
Ar 20.48569 2.45383 12.23413
Ar 17.00193 0.20039 17.56851
Ar 15.41343 2.08662 20.01316
Ar 20.26919 0.47825 20.77384
Ar 20.23547 2.50885 17.63476
Ar 16.13008 6.35104 0.94487
Ar 18.21815 9.77235 1.54524
Ar 20.10659 6.04953 1.11217
Ar 19.35622 8.16812 21.08756
Ar 16.32462 7.61768 4.06114
Ar 17.52253 6.42362 7.89142
Ar 21.26262 5.45211 7.70689
Ar 19.65809 8.83189 4.78658
Ar 17.13274 4.56486 11.27786
Ar 17.23729 6.37617 14.34111
Ar 20.10384 4.58774 14.81151
Ar 20.27898 6.28646 11.53502
Ar 17.09408 4.08506 17.74900
Ar 15.41567 8.49075 20.92468
Ar 20.82108 5.34779 19.59210
Ar 18.30327 7.62180 17.39759
Ar 16.94786 11.61525 21.23908
Ar 16.40341 12.71988 1.76011
Ar 21.50131 12.69217 1.84765
Ar 18.95937 14.79451 0.18543
Ar 17.16182 10.32770 6.12534
Ar 17.97006 12.52673 9.69811
Ar 20.86714 9.83266 7.75624
Ar 19.37600 12.72769 5.16885
Ar 17.71333 8.50317 10.99785
Ar 17.13186 13.78294 13.84283
Ar 19.39482 10.74910 14.41981
Ar 20.67870 13.05929 12.01999
Ar 16.31199 11.72302 16.98757
Ar 16.15545 14.77967 18.91053
Ar 20.81930 11.22619 21.13546
Ar 19.05533 13.58704 16.82912
Ar 16.14529 17.09719 0.64023
Ar 16.97976 20.70796 3.25180
Ar 20.96303 15.42437 3.60220
Ar 19.75718 18.45581 1.24726
Ar 17.22033 15.33484 6.13353
Ar 17.62721 22.06978 7.49710
Ar 18.79574 18.51031 9.05400
Ar 19.27052 18.49993 5.39146
Ar 17.65184 16.78271 11.46098
Ar 17.85882 19.49550 13.55351
Ar 19.27403 16.46429 14.72501
Ar 20.91104 20.93035 11.03336
Ar 16.39311 17.79319 17.01399
Ar 17.24989 20.28191 21.45104
Ar 19.32125 17.42019 20.42214
Ar 19.92060 20.16647 17.68800
256
frame 71
Ar 0.99733 0.01423 22.03666
Ar 22.26378 3.47072 22.60424
Ar 2.99074 0.30162 2.74590
Ar 3.45603 4.28030 1.47613
Ar 0.07393 1.52838 4.99708
Ar 0.64534 3.51744 10.07217
Ar 2.52628 1.08569 7.66141
Ar 4.00284 3.23427 4.85559
Ar 0.91220 0.07707 10.83633
Ar 22.44580 1.74191 14.97550
Ar 2.84420 21.72529 14.35570
Ar 2.89698 2.36717 13.63443
Ar 0.28847 21.61851 17.98343
Ar 2.46845 3.09269 20.30868
Ar 3.38436 21.10054 19.37156
Ar 2.81078 1.75437 17.16630
Ar 0.33219 6.91825 21.62441
Ar 22.71815 9.29555 2.48743
Ar 3.74928 8.33692 22.45622
Ar 6.03465 10.70801 21.10961
Ar 0.87891 5.48195 4.01129
Ar 1.26555 6.89513 9.71325
Ar 3.78340 6.67590 7.40371
Ar 2.30038 9.01624 5.40547
Ar 0.41948 5.28973 13.25804
Ar 21.35934 8.07150 14.93938
Ar 4.28089 5.24190 15.37584
Ar 2.26003 8.07683 13.54516
Ar 1.25070 4.87640 17.02605
Ar 22.75338 8.34663 18.32026
Ar 4.29162 7.38302 18.78622
Ar 3.18880 9.95056 16.56951
Ar 1.09236 10.97531 22.35876
Ar 1.91713 13.55059 2.24152
Ar 4.52862 11.01333 2.59037
Ar 3.51597 14.37317 22.14796
Ar 0.18062 11.93797 5.53784
Ar 20.91412 13.22383 8.36396
Ar 2.19859 12.35259 8.97914
Ar 1.89283 15.20784 5.82682
Ar 21.48379 9.54292 11.34270
Ar 22.72627 14.74311 14.65749
Ar 2.41315 11.70310 12.98978
Ar 2.10531 15.22644 10.51619
Ar 22.30427 11.32272 15.95677
Ar 22.23419 14.73206 20.08770
Ar 1.59915 11.67537 18.75833
Ar 2.34338 15.05101 17.25901
Ar 22.71596 16.24839 0.75328
Ar 22.01835 19.83287 3.03146
Ar 2.20517 17.41028 3.48993
Ar 2.37635 19.40338 0.68257
Ar 21.49175 16.38721 7.17087
Ar 21.93011 21.10000 7.12710
Ar 1.65794 18.02726 8.49829
Ar 2.26073 20.79190 5.10062
Ar 21.29825 16.90987 11.37580
Ar 21.86196 19.11948 14.67264
Ar 2.94025 16.53893 13.80859
Ar 1.96270 19.65020 11.88557
Ar 21.80888 17.16336 17.59886
Ar 22.32771 19.74030 21.66873
Ar 2.40645 17.33331 20.62082
Ar 1.99095 18.80313 17.03726
Ar 4.55334 0.09354 22.67449
Ar 6.63241 2.30149 1.79566
Ar 9.61137 0.56555 2.91606
Ar 8.94217 0.89341 21.73387
Ar 5.44602 22.16958 5.49429
Ar 5.62931 2.89570 8.09327
Ar 7.56801 22.68386 8.72701
Ar 7.71522 3.46856 5.24326
Ar 4.74547 22.45455 10.94903
Ar 6.16345 2.45237 15.26386
Ar 8.24229 22.30360 13.91892
Ar 8.26647 2.59875 11.53010
Ar 5.44768 21.80541 16.09995
Ar 5.83216 1.07182 19.71532
Ar 7.79312 21.19070 19.11074
Ar 8.92072 1.86760 17.68119
Ar 5.91809 4.87326 21.83578
Ar 6.95726 8.49823 0.74105
Ar 8.46992 7.25655 5.23069
Ar 10.23240 10.17235 21.41749
Ar 4.99251 6.86417 3.69999
Ar 4.56050 9.07976 11.11495
Ar 7.58297 6.70145 10.25080
Ar 6.84929 9.10857 7.86913
Ar 3.76298 5.28986 11.89687
Ar 5.78355 8.80292 14.53736
Ar 7.27626 5.48932 13.43759
Ar 8.84948 9.00842 12.61384
Ar 6.49171 4.40206 18.40437
Ar 7.59565 7.65386 20.24813
Ar 10.07921 4.29065 20.74072
Ar 8.41748 7.49404 16.55942
Ar 7.43526 12.66231 1.44536
Ar 5.68002 14.19363 4.14896
Ar 7.47339 10.85036 4.61825
Ar 10.68423 13.96756 1.48645
Ar 4.53034 11.97918 6.47733
Ar 5.61073 14.98951 7.78028
Ar 8.59825 12.60687 9.33088
Ar 9.24148 14.11600 5.59188
Ar 5.53973 12.16435 11.69109
Ar 5.29256 14.02891 14.63202
Ar 9.13860 12.95075 13.53734
Ar 9.02636 15.78553 10.43863
Ar 5.74667 12.76633 18.50593
Ar 6.82810 15.35446 21.42082
Ar 9.36797 12.48856 17.41224
Ar 8.94393 16.22994 17.67799
Ar 5.28181 16.50069 1.49898
Ar 5.19075 20.02250 2.54426
Ar 8.79004 17.75858 2.04186
Ar 7.99550 20.56782 1.01472
Ar 5.85430 17.73559 5.13077
Ar 5.46530 19.05428 8.73956
Ar 8.81032 17.72196 7.38181
Ar 8.88020 20.26922 4.41572
Ar 5.88553 16.38942 11.13006
Ar 5.13309 19.49499 12.98785
Ar 7.67454 16.40917 14.26499
Ar 8.81755 19.29206 11.41638
Ar 5.52938 17.85816 18.45123
Ar 5.44146 19.61716 21.55150
Ar 9.09150 18.14561 20.86561
Ar 8.93176 19.58833 16.32349
Ar 12.11233 0.18938 0.42433
Ar 10.65868 4.26598 3.55381
Ar 14.64535 0.44116 3.43443
Ar 13.37049 3.96887 0.89316
Ar 10.81780 22.73157 6.30400
Ar 10.30302 3.55078 7.97388
Ar 14.12892 1.42315 6.75953
Ar 14.24041 4.54228 4.33304
Ar 11.34542 0.30585 11.13918
Ar 10.93529 2.18265 14.01586
Ar 14.19986 22.60299 13.31178
Ar 13.89720 3.36297 11.21720
Ar 11.19680 22.21071 16.52495
Ar 11.93246 1.44723 19.55296
Ar 14.65817 21.55451 19.56539
Ar 13.89735 1.37168 16.82137
Ar 8.76463 5.45402 0.87047
Ar 10.19595 10.34827 2.16940
Ar 12.01622 7.27997 4.60532
Ar 12.16567 7.57053 0.76100
Ar 10.62619 6.90639 8.00646
Ar 11.61112 9.79181 9.89968
Ar 14.35899 5.03871 8.01271
Ar 14.44752 8.69511 7.32323
Ar 10.47419 5.69637 12.20151
Ar 12.16581 8.48584 14.89603
Ar 14.13700 4.79082 14.45949
Ar 14.64073 6.74613 11.04144
Ar 11.05619 4.46824 16.91213
Ar 11.25468 7.37920 18.69758
Ar 14.01422 5.16511 20.14072
Ar 14.97248 7.32887 17.04879
Ar 13.53977 10.83281 22.53809
Ar 12.93928 13.94996 4.41287
Ar 13.92197 10.12859 3.59363
Ar 14.53349 14.29135 21.96941
Ar 11.26704 11.18640 6.59903
Ar 11.60897 14.81782 8.28724
Ar 14.72102 10.53477 10.69255
Ar 14.59125 12.51834 7.34808
Ar 12.04566 12.87525 11.64458
Ar 11.02515 15.71806 14.65560
Ar 15.61576 9.94001 14.00601
Ar 14.98773 15.05855 9.84633
Ar 12.62150 12.05810 15.49836
Ar 10.14249 14.35911 20.71568
Ar 12.77841 10.57571 18.87910
Ar 12.37569 14.84080 18.03660
Ar 12.50324 17.52526 0.22787
Ar 11.99668 20.24617 3.11275
Ar 15.32118 17.43205 4.28932
Ar 14.70593 20.25150 0.48634
Ar 11.84339 17.11049 4.60241
Ar 11.50334 19.76373 8.45182
Ar 15.32006 17.78705 7.86434
Ar 14.23177 20.61902 6.18246
Ar 12.25609 17.56426 11.47262
Ar 11.86881 20.17517 13.86528
Ar 14.71334 16.73719 13.99016
Ar 14.59658 21.95982 9.84507
Ar 12.36448 18.28882 17.79172
Ar 11.49831 20.90865 20.38423
Ar 14.72013 18.07965 20.38325
Ar 14.69147 20.77172 16.13270
Ar 17.19956 0.55927 0.48728
Ar 17.41382 3.60884 2.95343
Ar 20.51458 1.32044 1.56655
Ar 18.05855 4.19267 21.42438
Ar 18.98560 0.89458 4.76421
Ar 17.20284 2.85472 7.90387
Ar 20.20979 1.40446 8.82773
Ar 20.75377 4.10513 4.30809
Ar 17.50515 22.80449 12.01694
Ar 17.11918 2.48385 14.45796
Ar 19.72473 22.30443 14.99491
Ar 20.42489 2.39749 12.31643
Ar 17.02908 0.24963 17.47082
Ar 15.46268 2.09506 20.14936
Ar 20.30171 0.57640 20.81415
Ar 20.21133 2.44849 17.67892
Ar 16.17205 6.36015 0.86812
Ar 18.13661 9.79463 1.70434
Ar 20.16238 6.06286 1.16459
Ar 19.26189 8.28361 21.07310
Ar 16.26234 7.57013 4.15901
Ar 17.55511 6.32619 7.81709
Ar 21.28604 5.52817 7.68274
Ar 19.68591 8.76644 4.75849
Ar 17.19832 4.52521 11.32951
Ar 17.35148 6.40100 14.30266
Ar 20.08775 4.61606 14.82264
Ar 20.25929 6.16853 11.44373
Ar 17.11403 4.03734 17.71978
Ar 15.38751 8.32620 20.90496
Ar 20.81916 5.35481 19.59330
Ar 18.37361 7.59237 17.38267
Ar 16.95021 11.61747 21.15926
Ar 16.35998 12.76701 1.67799
Ar 21.42991 12.72225 1.73236
Ar 18.91499 14.76134 0.27583
Ar 17.15193 10.28550 6.10226
Ar 18.00673 12.41010 9.78610
Ar 20.89307 9.87336 7.79028
Ar 19.34961 12.78305 5.17371
Ar 17.75473 8.50525 10.98020
Ar 17.31679 13.94008 13.93378
Ar 19.36815 10.82514 14.39674
Ar 20.70090 13.04568 12.05225
Ar 16.25968 11.67537 16.97236
Ar 16.22744 14.67460 18.87660
Ar 20.84908 11.25840 21.20620
Ar 19.11421 13.58555 16.79749
Ar 16.12628 17.14862 0.62176
Ar 16.91187 20.69242 3.24971
Ar 20.90312 15.48374 3.72085
Ar 19.67618 18.43780 1.21768
Ar 17.24931 15.20758 6.19069
Ar 17.68256 22.13842 7.46971
Ar 18.69905 18.61978 9.08997
Ar 19.21436 18.63267 5.39946
Ar 17.62346 16.72927 11.43778
Ar 17.89340 19.51891 13.55795
Ar 19.33259 16.53158 14.75538
Ar 20.88427 20.95294 11.08695
Ar 16.40545 17.87840 16.93745
Ar 17.41131 20.24773 21.44333
Ar 19.35326 17.35826 20.39684
Ar 19.96117 20.18852 17.68938
256
frame 72
Ar 1.08512 22.80522 22.11708
Ar 22.14452 3.62519 22.68763
Ar 2.95768 0.48155 2.70149
Ar 3.39226 4.27780 1.43832
Ar 0.10151 1.41163 5.09406
Ar 0.61444 3.49202 10.03431
Ar 2.45045 1.05679 7.71333
Ar 3.92811 3.23056 4.87644
Ar 0.84580 0.08304 10.88943
Ar 22.55814 1.65369 14.97833
Ar 2.82268 21.66417 14.27699
Ar 2.88239 2.42927 13.56284
Ar 0.27867 21.66240 17.98143
Ar 2.52474 3.10582 20.23034
Ar 3.45139 21.02809 19.34013
Ar 2.81800 1.64760 17.04857
Ar 0.42035 6.87139 21.68249
Ar 22.79080 9.36182 2.39388
Ar 3.71353 8.35885 22.49148
Ar 5.97054 10.71509 21.10022
Ar 0.78822 5.42867 4.12370
Ar 1.16948 6.87321 9.65591
Ar 3.84170 6.62775 7.43301
Ar 2.29310 9.01663 5.41102
Ar 0.45621 5.28203 13.24219
Ar 21.30264 7.97630 14.94131
Ar 4.22251 5.20148 15.37719
Ar 2.21381 8.18876 13.60777
Ar 1.25775 4.87447 17.01224
Ar 22.81821 8.31848 18.29269
Ar 4.36116 7.27145 18.80344
Ar 3.15877 10.03450 16.44566
Ar 1.11498 10.96681 22.45228
Ar 2.01976 13.61636 2.17389
Ar 4.52588 10.94265 2.56642
Ar 3.52092 14.40602 22.13046
Ar 0.16344 11.93537 5.42826
Ar 21.00199 13.15284 8.39442
Ar 2.20389 12.31617 8.95253
Ar 1.75140 15.23612 5.89677
Ar 21.40017 9.57951 11.35003
Ar 22.71734 14.78546 14.54804
Ar 2.31662 11.69680 13.00862
Ar 2.06678 15.42381 10.54289
Ar 22.27955 11.19697 15.96295
Ar 22.27968 14.68239 20.14804
Ar 1.47631 11.64279 18.88091
Ar 2.37053 15.10871 17.22106
Ar 0.01709 16.25010 0.77213
Ar 22.02911 19.80253 3.11814
Ar 2.24973 17.39424 3.43803
Ar 2.39959 19.28835 0.57751
Ar 21.44813 16.41507 7.14050
Ar 21.88028 20.99075 7.13894
Ar 1.67647 18.09663 8.54000
Ar 2.31921 20.72051 5.02002
Ar 21.29285 16.91772 11.35864
Ar 21.84605 19.16748 14.63361
Ar 2.82524 16.55766 13.73851
Ar 1.93992 19.64046 11.91260
Ar 21.83418 17.14400 17.55200
Ar 22.30856 19.83278 21.53915
Ar 2.40182 17.39165 20.59312
Ar 2.04658 18.78647 17.03608
Ar 4.62329 0.16657 22.64094
Ar 6.65575 2.32448 1.78427
Ar 9.62356 0.52602 2.87770
Ar 8.94230 0.92548 21.69357
Ar 5.43229 22.25399 5.48932
Ar 5.63278 2.88150 8.00750
Ar 7.52509 22.72756 8.71075
Ar 7.63193 3.55860 5.31666
Ar 4.70750 22.53361 10.98225
Ar 6.12678 2.35426 15.23007
Ar 8.24883 22.34884 13.87738
Ar 8.26163 2.54087 11.42622
Ar 5.50687 21.85742 16.13936
Ar 5.73686 1.13120 19.62686
Ar 7.79413 21.08969 19.14235
Ar 8.88024 1.95761 17.66733
Ar 5.89739 4.77763 21.73732
Ar 6.94493 8.45595 0.82806
Ar 8.47814 7.23673 5.22220
Ar 10.22967 10.30813 21.35401
Ar 4.90469 6.79823 3.71355
Ar 4.49473 9.01211 11.18386
Ar 7.59236 6.74669 10.28507
Ar 6.75766 9.01415 7.90917
Ar 3.84145 5.26321 11.76996
Ar 5.78813 8.75860 14.59335
Ar 7.25288 5.53438 13.52632
Ar 8.78798 9.00356 12.61995
Ar 6.55644 4.43877 18.36941
Ar 7.65740 7.67153 20.18433
Ar 10.00626 4.34017 20.80406
Ar 8.51787 7.50650 16.64315
Ar 7.41812 12.63737 1.54251
Ar 5.60291 14.21496 4.20928
Ar 7.41363 10.86889 4.60069
Ar 10.68503 13.96713 1.50486
Ar 4.61732 12.04312 6.42055
Ar 5.58879 14.94574 7.84726
Ar 8.57721 12.59390 9.31121
Ar 9.25201 14.20304 5.58468
Ar 5.52066 12.15894 11.69411
Ar 5.18728 13.80094 14.59620
Ar 9.17121 13.08522 13.47237
Ar 9.08992 15.83566 10.37850
Ar 5.80797 12.90958 18.48003
Ar 6.85208 15.35873 21.43079
Ar 9.38727 12.55272 17.31222
Ar 8.93739 16.20052 17.67942
Ar 5.27685 16.55865 1.51507
Ar 5.20522 20.00534 2.49385
Ar 8.80710 17.71433 2.10292
Ar 7.97044 20.68125 1.09140
Ar 5.85089 17.71726 5.07376
Ar 5.60596 19.24596 8.80292
Ar 8.90224 17.70888 7.24203
Ar 8.86453 20.20802 4.42933
Ar 5.94819 16.33980 11.10860
Ar 5.24595 19.38890 12.98876
Ar 7.77294 16.42694 14.21861
Ar 8.84233 19.20347 11.50185
Ar 5.62855 17.95452 18.50013
Ar 5.46717 19.62029 21.58452
Ar 9.11512 18.07462 20.91344
Ar 9.09077 19.64737 16.26359
Ar 12.09309 0.08953 0.39579
Ar 10.56528 4.30574 3.60974
Ar 14.68302 0.57547 3.47435
Ar 13.41160 3.91678 0.96933
Ar 10.82306 22.76717 6.43667
Ar 10.28146 3.60696 8.09794
Ar 14.14914 1.67591 6.65206
Ar 14.35102 4.61432 4.23278
Ar 11.32389 0.30019 11.20458
Ar 10.92207 2.14265 14.02211
Ar 14.16451 22.61234 13.34048
Ar 13.87621 3.30570 11.33699
Ar 11.34288 22.21614 16.53706
Ar 11.89179 1.53395 19.55453
Ar 14.64944 21.62778 19.55276
Ar 13.86100 1.34812 16.84969
Ar 8.73916 5.39481 0.87126
Ar 10.27121 10.38455 2.25660
Ar 12.07261 7.32467 4.66066
Ar 12.25883 7.46511 0.85854
Ar 10.62128 6.98523 7.98978
Ar 11.54083 9.79741 10.02229
Ar 14.31956 4.94285 8.10705
Ar 14.34501 8.81808 7.29309
Ar 10.49661 5.75857 12.21271
Ar 12.25905 8.43125 14.90911
Ar 14.18621 4.78154 14.42648
Ar 14.68819 6.69999 11.04488
Ar 11.05282 4.37128 16.92628
Ar 11.17733 7.33799 18.64451
Ar 13.95956 5.24519 20.10348
Ar 14.97602 7.23964 17.03096
Ar 13.59626 10.87350 22.64718
Ar 12.95010 13.92303 4.45235
Ar 13.86354 10.11573 3.66549
Ar 14.55605 14.18561 21.91675
Ar 11.30489 11.14993 6.52606
Ar 11.56873 14.80258 8.18998
Ar 14.74310 10.42842 10.62062
Ar 14.53510 12.33968 7.35274
Ar 12.15305 12.99047 11.76381
Ar 11.08545 15.80017 14.59766
Ar 15.63535 9.79228 14.05584
Ar 14.88514 15.00294 9.90058
Ar 12.67268 12.08335 15.47044
Ar 10.20256 14.46139 20.70384
Ar 12.70659 10.61663 18.81626
Ar 12.28382 14.85644 18.08880
Ar 12.52463 17.43443 0.09332
Ar 12.00660 20.23694 3.12380
Ar 15.35337 17.39547 4.21188
Ar 14.57341 20.25363 0.57610
Ar 11.81886 17.12756 4.59087
Ar 11.49569 19.69152 8.45577
Ar 15.27708 17.84315 7.87893
Ar 14.21599 20.58991 6.14993
Ar 12.15555 17.51757 11.39129
Ar 11.85986 20.06213 13.79235
Ar 14.60061 16.72735 14.02231
Ar 14.56364 22.01024 9.84008
Ar 12.35886 18.29506 17.71103
Ar 11.37802 20.89043 20.43850
Ar 14.73271 18.03912 20.43552
Ar 14.66950 20.71161 16.14028
Ar 17.11530 0.64776 0.49420
Ar 17.39313 3.59541 2.94284
Ar 20.38465 1.35688 1.63574
Ar 17.94838 4.27445 21.44016
Ar 19.02231 0.92300 4.72987
Ar 17.15248 2.88781 7.83840
Ar 20.36085 1.29473 8.83888
Ar 20.70156 4.06624 4.42865
Ar 17.51491 22.75424 11.97329
Ar 17.09790 2.49460 14.40355
Ar 19.86941 22.31086 14.91653
Ar 20.35213 2.32357 12.35186
Ar 17.11474 0.29433 17.37218
Ar 15.51794 2.07842 20.30976
Ar 20.32848 0.66790 20.85091
Ar 20.19566 2.36324 17.72432
Ar 16.21527 6.36661 0.78953
Ar 18.06365 9.80097 1.85042
Ar 20.21076 6.08684 1.22378
Ar 19.14544 8.37101 21.06077
Ar 16.20376 7.49779 4.26441
Ar 17.61143 6.26308 7.74008
Ar 21.30576 5.60526 7.65979
Ar 19.77393 8.65412 4.68851
Ar 17.28704 4.45232 11.36804
Ar 17.42802 6.46060 14.24271
Ar 20.09932 4.64673 14.87549
Ar 20.26685 6.03775 11.34777
Ar 17.12029 4.01559 17.68339
Ar 15.36671 8.16776 20.86256
Ar 20.81988 5.36088 19.57348
Ar 18.48257 7.57562 17.39079
Ar 16.96542 11.61909 21.06657
Ar 16.30200 12.81956 1.63395
Ar 21.34247 12.71944 1.61188
Ar 18.87773 14.73793 0.35297
Ar 17.11400 10.29229 6.11458
Ar 17.99183 12.27854 9.88402
Ar 20.92010 9.88606 7.83625
Ar 19.34659 12.80132 5.15842
Ar 17.79523 8.52783 10.96108
Ar 17.46033 14.06898 13.98706
Ar 19.28153 10.89396 14.35931
Ar 20.73566 13.05394 12.08493
Ar 16.18640 11.60566 16.96965
Ar 16.30292 14.58468 18.84303
Ar 20.84185 11.32699 21.25321
Ar 19.22209 13.59333 16.80100
Ar 16.13679 17.17946 0.62471
Ar 16.87052 20.65975 3.25352
Ar 20.84539 15.58353 3.84632
Ar 19.54450 18.39349 1.15944
Ar 17.27108 15.09025 6.27070
Ar 17.71477 22.16784 7.46228
Ar 18.63683 18.78401 9.06099
Ar 19.15217 18.76848 5.40106
Ar 17.57076 16.61682 11.47270
Ar 17.91943 19.55744 13.56972
Ar 19.41409 16.61557 14.79640
Ar 20.83824 20.96370 11.14738
Ar 16.43865 17.95142 16.87516
Ar 17.64603 20.21688 21.40157
Ar 19.38439 17.29088 20.36862
Ar 19.96903 20.19778 17.71618
256
frame 73
Ar 1.17624 22.79622 22.19940
Ar 22.06211 3.76887 22.74239
Ar 2.90527 0.67064 2.67745
Ar 3.31439 4.27209 1.39325
Ar 0.12846 1.28356 5.18234
Ar 0.57761 3.45530 9.99565
Ar 2.38356 1.01976 7.77021
Ar 3.84810 3.22974 4.89918
Ar 0.79391 0.09787 10.95087
Ar 22.69192 1.57245 14.99519
Ar 2.75070 21.65018 14.22512
Ar 2.86570 2.47537 13.47048
Ar 0.26041 21.73647 17.97754
Ar 2.58057 3.12892 20.17257
Ar 3.51046 20.98415 19.29905
Ar 2.83764 1.51941 16.92987
Ar 0.51837 6.84101 21.75003
Ar 0.02818 9.40658 2.32687
Ar 3.65312 8.36456 22.52658
Ar 5.90767 10.73328 21.10383
Ar 0.76923 5.41096 4.22876
Ar 1.06651 6.88766 9.62064
Ar 3.92624 6.55819 7.46244
Ar 2.28257 9.02514 5.40609
Ar 0.48507 5.24759 13.22947
Ar 21.25115 7.86993 14.93145
Ar 4.16855 5.19902 15.38597
Ar 2.15149 8.29552 13.68168
Ar 1.22669 4.88022 17.01164
Ar 0.05977 8.28725 18.26653
Ar 4.41341 7.16347 18.81812
Ar 3.13557 10.11870 16.31818
Ar 1.19315 10.97106 22.53609
Ar 2.11235 13.67261 2.15955
Ar 4.49476 10.85594 2.53803
Ar 3.52731 14.42096 22.07199
Ar 0.14440 11.93819 5.31075
Ar 21.11443 13.12584 8.43308
Ar 2.19606 12.26036 8.92849
Ar 1.61984 15.22406 6.00406
Ar 21.32689 9.61072 11.37116
Ar 22.69513 14.82419 14.44315
Ar 2.19700 11.70433 13.03270
Ar 2.02754 15.60079 10.58399
Ar 22.28112 11.09221 15.97277
Ar 22.32907 14.62707 20.21668
Ar 1.34353 11.63989 19.04000
Ar 2.40382 15.16022 17.19353
Ar 0.13329 16.26055 0.77664
Ar 22.05930 19.78149 3.21548
Ar 2.30200 17.39495 3.37398
Ar 2.41372 19.20475 0.48389
Ar 21.39726 16.46640 7.13669
Ar 21.82847 20.88061 7.15259
Ar 1.69292 18.20047 8.55287
Ar 2.36074 20.63443 4.95319
Ar 21.29423 16.92747 11.34189
Ar 21.84810 19.23181 14.57603
Ar 2.72730 16.59281 13.68700
Ar 1.87520 19.57832 11.88027
Ar 21.85382 17.10470 17.51353
Ar 22.25711 19.90087 21.39101
Ar 2.39094 17.44199 20.52869
Ar 2.12345 18.75910 17.01011
Ar 4.70583 0.22127 22.60231
Ar 6.67897 2.35508 1.78009
Ar 9.63700 0.50471 2.85121
Ar 8.92544 0.95483 21.65452
Ar 5.43803 22.35100 5.48922
Ar 5.62376 2.87240 7.95832
Ar 7.49907 22.76096 8.69070
Ar 7.54967 3.64650 5.37463
Ar 4.66219 22.61630 11.02059
Ar 6.11192 2.24937 15.18872
Ar 8.26414 22.39305 13.82427
Ar 8.25072 2.48594 11.31857
Ar 5.61238 21.89045 16.23286
Ar 5.64632 1.20936 19.50368
Ar 7.79706 20.99473 19.18528
Ar 8.81692 1.99599 17.65728
Ar 5.86208 4.67989 21.64500
Ar 6.95769 8.42164 0.94663
Ar 8.47227 7.21606 5.19237
Ar 10.20743 10.44232 21.29473
Ar 4.82075 6.73596 3.72682
Ar 4.43250 8.90800 11.21652
Ar 7.59356 6.75888 10.30322
Ar 6.65665 8.95134 7.93156
Ar 3.93364 5.25022 11.61978
Ar 5.79677 8.71150 14.64422
Ar 7.22333 5.57042 13.63706
Ar 8.73965 9.02253 12.63790
Ar 6.62099 4.48988 18.31050
Ar 7.73597 7.67936 20.12227
Ar 9.94608 4.38857 20.82424
Ar 8.58677 7.51498 16.69206
Ar 7.40105 12.62249 1.60747
Ar 5.53767 14.27502 4.23059
Ar 7.37847 10.87403 4.59951
Ar 10.70125 13.98065 1.52439
Ar 4.67100 12.03078 6.38886
Ar 5.57772 14.93128 7.92393
Ar 8.55372 12.55516 9.28214
Ar 9.24791 14.28940 5.56381
Ar 5.54028 12.17927 11.65627
Ar 5.07609 13.58609 14.60107
Ar 9.16922 13.20135 13.40990
Ar 9.19764 15.88391 10.32928
Ar 5.86181 13.07637 18.43048
Ar 6.87666 15.35766 21.42717
Ar 9.40856 12.61070 17.21284
Ar 8.92175 16.17568 17.68530
Ar 5.26994 16.62651 1.53419
Ar 5.14744 19.99426 2.49033
Ar 8.84715 17.57208 2.16838
Ar 8.01192 20.89037 1.07675
Ar 5.84859 17.69876 5.03197
Ar 5.74616 19.44011 8.86500
Ar 8.98012 17.68273 7.09524
Ar 8.81757 20.15566 4.49861
Ar 5.94289 16.29312 11.10689
Ar 5.39186 19.27871 12.99793
Ar 7.84347 16.46508 14.16841
Ar 8.86017 19.13006 11.59020
Ar 5.72941 18.04138 18.53256
Ar 5.52340 19.59565 21.65281
Ar 9.14121 18.01052 20.96614
Ar 9.23306 19.67261 16.18571
Ar 12.09507 0.00436 0.37166
Ar 10.49605 4.32846 3.66908
Ar 14.71259 0.71440 3.48273
Ar 13.44579 3.84974 1.02093
Ar 10.82798 22.80528 6.56973
Ar 10.25851 3.62766 8.22496
Ar 14.14425 1.91662 6.56419
Ar 14.43993 4.66393 4.16065
Ar 11.29109 0.27441 11.23512
Ar 10.91295 2.12288 14.05531
Ar 14.13915 22.66039 13.36691
Ar 13.83635 3.20656 11.44120
Ar 11.43289 22.19329 16.55761
Ar 11.84509 1.62676 19.59003
Ar 14.64681 21.68760 19.54989
Ar 13.89446 1.40108 16.84608
Ar 8.70717 5.35162 0.90724
Ar 10.35213 10.41118 2.35137
Ar 12.12624 7.37563 4.72126
Ar 12.35298 7.35837 0.95283
Ar 10.62943 7.08923 7.98680
Ar 11.42420 9.79510 10.14089
Ar 14.24889 4.85783 8.18035
Ar 14.20497 8.89838 7.28085
Ar 10.55253 5.81276 12.22026
Ar 12.34005 8.36929 14.91788
Ar 14.22458 4.77766 14.41519
Ar 14.71438 6.69731 11.06863
Ar 11.08250 4.28884 16.92188
Ar 11.13916 7.31319 18.63526
Ar 13.87715 5.29069 20.05712
Ar 14.96797 7.15460 17.02227
Ar 13.64800 10.90403 22.76730
Ar 12.97528 13.86722 4.48827
Ar 13.81234 10.13456 3.72815
Ar 14.54485 14.11555 21.84170
Ar 11.32593 11.10383 6.44576
Ar 11.55458 14.78451 8.08610
Ar 14.80427 10.34250 10.55096
Ar 14.48399 12.18979 7.36826
Ar 12.28024 13.11588 11.86968
Ar 11.18310 15.88895 14.54910
Ar 15.65547 9.63231 14.09493
Ar 14.77172 14.92545 9.96363
Ar 12.72484 12.11702 15.43314
Ar 10.25553 14.54910 20.72044
Ar 12.65179 10.66554 18.74963
Ar 12.23162 14.85084 18.11741
Ar 12.49925 17.32389 22.80905
Ar 12.03966 20.25083 3.11571
Ar 15.39035 17.36319 4.12770
Ar 14.43494 20.29056 0.65890
Ar 11.76558 17.15320 4.59599
Ar 11.49973 19.62899 8.47004
Ar 15.23652 17.89276 7.90425
Ar 14.19704 20.58856 6.09889
Ar 12.06604 17.45528 11.29429
Ar 11.83493 19.93359 13.71819
Ar 14.49390 16.71755 14.05111
Ar 14.53278 22.05645 9.81458
Ar 12.34442 18.32416 17.62063
Ar 11.23743 20.85157 20.48628
Ar 14.76263 17.99920 20.43694
Ar 14.64018 20.65191 16.14250
Ar 17.01764 0.73161 0.50001
Ar 17.38355 3.57949 2.91635
Ar 20.26353 1.37628 1.70665
Ar 17.85878 4.35280 21.45692
Ar 19.05327 0.94008 4.71018
Ar 17.12964 2.89911 7.77948
Ar 20.52808 1.18977 8.84958
Ar 20.57617 4.01602 4.54868
Ar 17.53370 22.70618 11.90926
Ar 17.07312 2.50234 14.35499
Ar 19.99890 22.32411 14.82650
Ar 20.27692 2.23875 12.35700
Ar 17.23323 0.32868 17.27739
Ar 15.56440 2.05208 20.47336
Ar 20.35170 0.74998 20.89149
Ar 20.19523 2.26206 17.75924
Ar 16.25622 6.37474 0.74302
Ar 17.99277 9.79778 1.97918
Ar 20.23786 6.13712 1.29728
Ar 19.01467 8.42989 21.05242
Ar 16.16122 7.42112 4.36718
Ar 17.68008 6.24215 7.66229
Ar 21.31918 5.68214 7.63498
Ar 19.89422 8.51502 4.61008
Ar 17.37051 4.34420 11.38637
Ar 17.46302 6.55617 14.16560
Ar 20.14414 4.65409 14.96305
Ar 20.31314 5.91199 11.24863
Ar 17.11030 4.01696 17.64597
Ar 15.35691 8.06462 20.79901
Ar 20.82090 5.36886 19.54106
Ar 18.61170 7.56769 17.41654
Ar 16.99135 11.61201 20.96668
Ar 16.23558 12.86389 1.63906
Ar 21.26648 12.70321 1.51890
Ar 18.84355 14.73704 0.40830
Ar 17.09426 10.32575 6.13797
Ar 17.94804 12.13987 9.98322
Ar 20.94294 9.85093 7.87411
Ar 19.37688 12.76471 5.11972
Ar 17.83971 8.56044 10.94098
Ar 17.54631 14.15693 14.00018
Ar 19.15177 10.94000 14.31560
Ar 20.78137 13.08600 12.11058
Ar 16.10915 11.52430 16.97826
Ar 16.37997 14.51838 18.80898
Ar 20.80506 11.41862 21.26873
Ar 19.36876 13.60044 16.84639
Ar 16.17043 17.18543 0.64801
Ar 16.84815 20.62158 3.26020
Ar 20.79524 15.70753 3.94246
Ar 19.40420 18.33980 1.09795
Ar 17.26374 15.00639 6.37788
Ar 17.72447 22.16314 7.47209
Ar 18.59083 18.96907 9.01181
Ar 19.08692 18.90218 5.39967
Ar 17.51686 16.49050 11.52435
Ar 17.93608 19.60166 13.58433
Ar 19.51900 16.72096 14.84993
Ar 20.77357 20.96083 11.21496
Ar 16.50052 17.99525 16.83276
Ar 17.88572 20.20163 21.35357
Ar 19.41720 17.21232 20.33568
Ar 19.94491 20.19678 17.76089
256
frame 74
Ar 1.26482 22.80536 22.28055
Ar 22.01707 3.86303 22.76981
Ar 2.83999 0.85113 2.66248
Ar 3.22596 4.26492 1.34116
Ar 0.14022 1.15315 5.25249
Ar 0.53639 3.41752 9.95651
Ar 2.33595 0.97475 7.83863
Ar 3.76470 3.23790 4.92671
Ar 0.75562 0.11458 11.02456
Ar 0.00481 1.50564 15.01717
Ar 2.67285 21.67784 14.21784
Ar 2.85520 2.50392 13.35652
Ar 0.24092 21.82838 17.97110
Ar 2.63143 3.15991 20.12807
Ar 3.56298 20.96795 19.25734
Ar 2.87154 1.38395 16.82425
Ar 0.61828 6.82902 21.81573
Ar 0.06727 9.41417 2.31066
Ar 3.59025 8.35390 22.56498
Ar 5.84820 10.76136 21.11432
Ar 0.79370 5.41632 4.32829
Ar 0.97336 6.93614 9.60862
Ar 4.02095 6.47134 7.49296
Ar 2.27281 9.03488 5.39744
Ar 0.51206 5.19840 13.21833
Ar 21.21001 7.77939 14.90601
Ar 4.12697 5.22285 15.39409
Ar 2.05975 8.36348 13.75014
Ar 1.15715 4.88514 17.02584
Ar 0.12614 8.24985 18.24387
Ar 4.44132 7.06836 18.83095
Ar 3.11342 10.23061 16.23180
Ar 1.31315 11.00869 22.58370
Ar 2.19160 13.71376 2.20154
Ar 4.43668 10.75784 2.50704
Ar 3.53640 14.42429 21.97162
Ar 0.12413 11.94417 5.18772
Ar 21.23829 13.14120 8.47906
Ar 2.17760 12.20105 8.91238
Ar 1.50877 15.19097 6.12369
Ar 21.26664 9.63328 11.40936
Ar 22.66294 14.85784 14.35597
Ar 2.06325 11.73550 13.05091
Ar 1.98413 15.72556 10.61399
Ar 22.29576 11.00850 15.97867
Ar 22.38089 14.57664 20.29025
Ar 1.21580 11.64978 19.20237
Ar 2.44063 15.19932 17.17433
Ar 0.22907 16.27751 0.76514
Ar 22.09198 19.76035 3.31099
Ar 2.35624 17.38902 3.32987
Ar 2.41144 19.16704 0.41332
Ar 21.33478 16.54590 7.18303
Ar 21.77736 20.76917 7.16798
Ar 1.70498 18.34291 8.52329
Ar 2.39274 20.54910 4.89936
Ar 21.29876 16.94063 11.32540
Ar 21.87851 19.31304 14.50628
Ar 2.66351 16.64861 13.67930
Ar 1.78347 19.47468 11.79947
Ar 21.87665 17.05165 17.48836
Ar 22.18258 19.94866 21.22997
Ar 2.37505 17.46988 20.41190
Ar 2.20880 18.73090 16.95876
Ar 4.79786 0.25707 22.56632
Ar 6.70137 2.39316 1.78654
Ar 9.66077 0.51199 2.85164
Ar 8.89026 0.98275 21.61660
Ar 5.45639 22.45780 5.49051
Ar 5.58779 2.86326 7.96299
Ar 7.49066 22.78375 8.66773
Ar 7.47896 3.73583 5.40191
Ar 4.61264 22.70024 11.06372
Ar 6.11069 2.16728 15.13435
Ar 8.28671 22.43038 13.76074
Ar 8.23365 2.43972 11.21448
Ar 5.72637 21.88610 16.35383
Ar 5.56808 1.29353 19.35181
Ar 7.80070 20.91606 19.23205
Ar 8.73943 1.96713 17.65051
Ar 5.81769 4.58211 21.56770
Ar 6.98393 8.39985 1.07946
Ar 8.45384 7.20015 5.14431
Ar 10.16904 10.57599 21.24675
Ar 4.74193 6.67803 3.73972
Ar 4.38228 8.79158 11.21707
Ar 7.58986 6.73058 10.31550
Ar 6.54916 8.92486 7.93022
Ar 4.03354 5.24838 11.45506
Ar 5.80681 8.66417 14.69197
Ar 7.20190 5.59199 13.75431
Ar 8.70404 9.06535 12.66976
Ar 6.68517 4.55805 18.22320
Ar 7.82081 7.68266 20.08012
Ar 9.89928 4.43642 20.79579
Ar 8.59924 7.52283 16.67741
Ar 7.38655 12.62174 1.63707
Ar 5.48448 14.37013 4.20687
Ar 7.37572 10.85920 4.61534
Ar 10.72981 14.00640 1.54504
Ar 4.68254 11.94412 6.39554
Ar 5.57484 14.93844 7.99894
Ar 8.52973 12.50154 9.24627
Ar 9.22313 14.36755 5.52076
Ar 5.58362 12.20001 11.56663
Ar 4.95960 13.39688 14.65695
Ar 9.13958 13.29729 13.34615
Ar 9.30045 15.91191 10.28397
Ar 5.91032 13.25692 18.37029
Ar 6.89656 15.34912 21.41575
Ar 9.43090 12.65851 17.11382
Ar 8.89559 16.16200 17.69166
Ar 5.26623 16.68950 1.54123
Ar 5.05718 20.00663 2.51501
Ar 8.89198 17.39851 2.22238
Ar 8.08842 21.11080 1.01075
Ar 5.84933 17.68595 5.01199
Ar 5.88471 19.62872 8.92706
Ar 9.03986 17.63989 6.95173
Ar 8.75150 20.11915 4.59658
Ar 5.89556 16.24638 11.12270
Ar 5.54282 19.18008 13.01639
Ar 7.88343 16.51912 14.11988
Ar 8.86866 19.07957 11.68043
Ar 5.82815 18.11172 18.54575
Ar 5.60289 19.55030 21.74982
Ar 9.16724 17.95698 21.02373
Ar 9.33837 19.66002 16.09923
Ar 12.10684 22.77502 0.35220
Ar 10.45906 4.33745 3.73483
Ar 14.74035 0.84476 3.45244
Ar 13.47167 3.76301 1.03748
Ar 10.83302 0.02098 6.70044
Ar 10.23524 3.62662 8.35292
Ar 14.09736 2.11429 6.48659
Ar 14.47565 4.67331 4.12471
Ar 11.24708 0.22727 11.23068
Ar 10.90722 2.12283 14.11025
Ar 14.12143 22.73401 13.39392
Ar 13.78477 3.07495 11.52059
Ar 11.46994 22.14980 16.58463
Ar 11.80446 1.71576 19.64652
Ar 14.64072 21.72586 19.55535
Ar 13.99811 1.52627 16.82400
Ar 8.66115 5.32515 0.97669
Ar 10.43456 10.42805 2.44855
Ar 12.16558 7.41207 4.78313
Ar 12.44684 7.25595 1.04394
Ar 10.64550 7.20349 7.99567
Ar 11.28747 9.79835 10.26050
Ar 14.15549 4.81405 8.24938
Ar 14.04040 8.90257 7.28402
Ar 10.63102 5.85869 12.22651
Ar 12.40192 8.30305 14.92118
Ar 14.25303 4.78401 14.43023
Ar 14.72850 6.71958 11.11357
Ar 11.15091 4.23334 16.90371
Ar 11.16836 7.30162 18.68408
Ar 13.75907 5.26553 19.99941
Ar 14.96268 7.07633 17.02618
Ar 13.68839 10.90941 0.06878
Ar 13.01001 13.79817 4.51913
Ar 13.78316 10.18990 3.77718
Ar 14.50188 14.09031 21.73961
Ar 11.31605 11.04841 6.36001
Ar 11.57468 14.76220 7.98028
Ar 14.87353 10.27460 10.49037
Ar 14.44089 12.11569 7.40132
Ar 12.41774 13.24225 11.96421
Ar 11.29055 15.97681 14.51646
Ar 15.67029 9.47221 14.11604
Ar 14.65695 14.83860 10.02252
Ar 12.77662 12.15715 15.38704
Ar 10.29242 14.61633 20.78131
Ar 12.61369 10.71842 18.68077
Ar 12.23377 14.83086 18.10589
Ar 12.43086 17.19702 22.73163
Ar 12.06851 20.28595 3.10702
Ar 15.42651 17.33036 4.05183
Ar 14.32608 20.33284 0.71378
Ar 11.69863 17.17430 4.61535
Ar 11.51639 19.58078 8.49088
Ar 15.19896 17.92432 7.94319
Ar 14.17500 20.61718 6.03135
Ar 12.01591 17.38143 11.19012
Ar 11.80960 19.80746 13.64953
Ar 14.41395 16.71359 14.07375
Ar 14.50340 22.09959 9.77124
Ar 12.32436 18.36432 17.52954
Ar 11.09784 20.80212 20.51766
Ar 14.81428 17.96877 20.38386
Ar 14.60537 20.61145 16.13317
Ar 16.91509 0.79868 0.51694
Ar 17.39278 3.56026 2.86948
Ar 20.17363 1.39344 1.73877
Ar 17.81191 4.42307 21.45853
Ar 19.05846 0.92397 4.74030
Ar 17.15067 2.88492 7.73278
Ar 20.70017 1.09064 8.85535
Ar 20.41884 3.97364 4.66603
Ar 17.55229 22.66442 11.82772
Ar 17.04644 2.50128 14.31661
Ar 20.10342 22.33580 14.73492
Ar 20.21267 2.15285 12.34788
Ar 17.36005 0.34349 17.18893
Ar 15.58485 2.02916 20.61457
Ar 20.37299 0.81991 20.94437
Ar 20.21523 2.15803 17.77619
Ar 16.28432 6.39766 0.75513
Ar 17.91919 9.79051 2.09060
Ar 20.22963 6.23081 1.39540
Ar 18.88095 8.46518 21.05078
Ar 16.15452 7.38185 4.46756
Ar 17.75193 6.26245 7.58657
Ar 21.32262 5.75632 7.60165
Ar 20.03050 8.35987 4.54025
Ar 17.42504 4.21170 11.37878
Ar 17.47902 6.66524 14.07953
Ar 20.20189 4.62058 15.07213
Ar 20.39949 5.80327 11.14856
Ar 17.08749 4.03638 17.61224
Ar 15.36502 8.04681 20.71860
Ar 20.82297 5.37815 19.50250
Ar 18.74311 7.56503 17.45259
Ar 17.02361 11.59499 20.86676
Ar 16.16553 12.89638 1.69391
Ar 21.22101 12.68098 1.48155
Ar 18.80675 14.76382 0.43671
Ar 17.10716 10.36020 6.16090
Ar 17.89768 12.00665 10.07764
Ar 20.95922 9.76907 7.89374
Ar 19.43701 12.68700 5.05904
Ar 17.89309 8.58773 10.92090
Ar 17.58382 14.19871 14.00172
Ar 19.00132 10.95887 14.27301
Ar 20.82887 13.13405 12.12193
Ar 16.03626 11.43624 16.99757
Ar 16.45816 14.47979 18.77247
Ar 20.75200 11.51125 21.24197
Ar 19.54172 13.60498 16.92093
Ar 16.20073 17.17093 0.67945
Ar 16.83432 20.59111 3.26286
Ar 20.74826 15.84133 3.98547
Ar 19.29280 18.28753 1.05591
Ar 17.22917 14.95227 6.50779
Ar 17.71512 22.13760 7.49350
Ar 18.55266 19.14996 8.96795
Ar 19.02364 19.02754 5.39866
Ar 17.47230 16.38645 11.56013
Ar 17.94254 19.64388 13.60042
Ar 19.62794 16.83129 14.90997
Ar 20.69767 20.94512 11.28806
Ar 16.59552 18.00060 16.81109
Ar 18.10920 20.21359 21.29723
Ar 19.45273 17.11800 20.29636
Ar 19.89561 20.18866 17.81449
256
frame 75
Ar 1.34314 22.82257 22.35463
Ar 21.99949 3.89891 22.77597
Ar 2.76707 1.00559 2.64423
Ar 3.13018 4.26118 1.28163
Ar 0.12810 1.02439 5.29889
Ar 0.49417 3.39199 9.91689
Ar 2.31405 0.92157 7.92226
Ar 3.68365 3.26136 4.96780
Ar 0.72873 0.12411 11.11550
Ar 0.11899 1.45795 15.03347
Ar 2.59825 21.71760 14.23310
Ar 2.86093 2.51820 13.22323
Ar 0.22061 21.92765 17.96214
Ar 2.66953 3.19879 20.09243
Ar 3.61257 20.97441 19.22704
Ar 2.93105 1.25482 16.74665
Ar 0.70534 6.83063 21.87003
Ar 0.08331 9.38284 2.34341
Ar 3.55377 8.32908 22.61041
Ar 5.79270 10.79791 21.12838
Ar 0.83243 5.43389 4.42405
Ar 0.90371 7.01396 9.62232
Ar 4.11179 6.36786 7.52441
Ar 2.26601 9.04105 5.39014
Ar 0.53815 5.14330 13.20866
Ar 21.18660 7.72598 14.86047
Ar 4.09270 5.26136 15.39952
Ar 1.93570 8.37631 13.79738
Ar 1.05613 4.88306 17.05087
Ar 0.19374 8.20702 18.22610
Ar 4.43904 6.99446 18.84580
Ar 3.09974 10.38176 16.20713
Ar 1.45819 11.08763 22.60342
Ar 2.26388 13.74195 2.28399
Ar 4.35979 10.65495 2.47776
Ar 3.54044 14.41677 21.84547
Ar 0.10744 11.95095 5.06211
Ar 21.36647 13.18000 8.52589
Ar 2.14977 12.14237 8.90606
Ar 1.42276 15.14676 6.24414
Ar 21.22458 9.64839 11.46512
Ar 22.63110 14.89173 14.30132
Ar 1.91916 11.79423 13.05426
Ar 1.93290 15.79580 10.60974
Ar 22.31255 10.94497 15.97616
Ar 22.43257 14.54627 20.36768
Ar 1.10030 11.66019 19.33919
Ar 2.47943 15.21960 17.16219
Ar 0.29773 16.29590 0.73598
Ar 22.11833 19.73535 3.39936
Ar 2.40506 17.36461 3.32286
Ar 2.38984 19.17639 0.36130
Ar 21.25834 16.65434 7.28381
Ar 21.72954 20.65704 7.18553
Ar 1.71396 18.51062 8.44370
Ar 2.42007 20.47868 4.86618
Ar 21.30301 16.95874 11.30923
Ar 21.94738 19.40773 14.43091
Ar 2.64383 16.72483 13.73269
Ar 1.67796 19.36445 11.70483
Ar 21.91595 16.99253 17.48495
Ar 22.09590 19.98343 21.06221
Ar 2.35495 17.47396 20.24838
Ar 2.29399 18.71194 16.88165
Ar 4.89755 0.27688 22.53163
Ar 6.72039 2.43538 1.80613
Ar 9.70832 0.56312 2.89731
Ar 8.83824 1.01600 21.57584
Ar 5.48051 22.57119 5.49040
Ar 5.52177 2.85210 8.02381
Ar 7.50284 22.80274 8.64079
Ar 7.41853 3.82527 5.39711
Ar 4.56268 22.78421 11.10944
Ar 6.11443 2.12288 15.06318
Ar 8.31417 22.45487 13.68935
Ar 8.20879 2.40544 11.12289
Ar 5.83951 21.83742 16.48541
Ar 5.50553 1.37474 19.18724
Ar 7.80663 20.86484 19.27809
Ar 8.66915 1.87803 17.64328
Ar 5.77161 4.48527 21.50696
Ar 7.01444 8.39509 1.21752
Ar 8.42682 7.19540 5.08318
Ar 10.11794 10.71014 21.21195
Ar 4.66898 6.62508 3.75143
Ar 4.34457 8.68232 11.19474
Ar 7.58464 6.66799 10.32651
Ar 6.44330 8.93254 7.90989
Ar 4.13667 5.24570 11.28219
Ar 5.80622 8.62520 14.73862
Ar 7.20026 5.59266 13.86425
Ar 8.67563 9.12499 12.71494
Ar 6.75363 4.64048 18.10900
Ar 7.90173 7.68540 20.06665
Ar 9.85649 4.49006 20.73338
Ar 8.57433 7.53039 16.60757
Ar 7.37415 12.63399 1.63433
Ar 5.43401 14.46120 4.16291
Ar 7.40600 10.82405 4.64207
Ar 10.76804 14.03981 1.56915
Ar 4.66102 11.82112 6.42622
Ar 5.57542 14.95012 8.05272
Ar 8.50805 12.44064 9.20363
Ar 9.17507 14.42750 5.44928
Ar 5.63698 12.21655 11.44102
Ar 4.84073 13.22731 14.74826
Ar 9.09461 13.37299 13.27692
Ar 9.33491 15.89514 10.22890
Ar 5.95468 13.44473 18.30770
Ar 6.90722 15.33199 21.40116
Ar 9.45359 12.69332 17.01457
Ar 8.86237 16.16124 17.69782
Ar 5.27249 16.73838 1.52073
Ar 4.97277 20.05749 2.55076
Ar 8.93418 17.21786 2.26614
Ar 8.15634 21.29131 0.91185
Ar 5.85445 17.68977 5.01853
Ar 6.01648 19.79881 8.99051
Ar 9.07851 17.57871 6.83559
Ar 8.67466 20.10945 4.69008
Ar 5.82904 16.19726 11.15766
Ar 5.67721 19.10647 13.04848
Ar 7.90227 16.58286 14.08186
Ar 8.87149 19.05565 11.76446
Ar 5.91625 18.15636 18.53955
Ar 5.69466 19.49017 21.86141
Ar 9.18638 17.91690 21.08632
Ar 9.38262 19.60708 16.01058
Ar 12.10852 22.77491 0.33221
Ar 10.45930 4.33369 3.80789
Ar 14.76709 0.95746 3.38705
Ar 13.48960 3.65422 1.01480
Ar 10.83909 0.06131 6.82799
Ar 10.21493 3.61704 8.47693
Ar 14.00661 2.23484 6.40713
Ar 14.44849 4.64284 4.11616
Ar 11.19226 0.16255 11.20025
Ar 10.90499 2.13341 14.17147
Ar 14.10904 22.81926 13.42295
Ar 13.72685 2.92672 11.57349
Ar 11.49088 22.12406 16.62385
Ar 11.78290 1.79139 19.70724
Ar 14.62660 21.74072 19.56433
Ar 14.13270 1.69094 16.79414
Ar 8.60545 5.31036 1.06178
Ar 10.51138 10.43702 2.54369
Ar 12.18083 7.41976 4.83199
Ar 12.53931 7.16107 1.13249
Ar 10.66072 7.31311 8.01298
Ar 11.15390 9.81646 10.38229
Ar 14.04967 4.83863 8.33985
Ar 13.87672 8.82380 7.30694
Ar 10.72347 5.89803 12.23255
Ar 12.43732 8.23468 14.91866
Ar 14.27113 4.79875 14.46350
Ar 14.73608 6.75001 11.17882
Ar 11.24643 4.20483 16.88487
Ar 11.24864 7.30518 18.77162
Ar 13.62081 5.17566 19.93993
Ar 14.96839 7.00905 17.04694
Ar 13.71365 10.88680 0.19294
Ar 13.04988 13.73008 4.54204
Ar 13.78908 10.27636 3.81207
Ar 14.43642 14.10005 21.61956
Ar 11.26579 10.98869 6.27186
Ar 11.62921 14.73532 7.87570
Ar 14.92072 10.22098 10.44382
Ar 14.40820 12.13572 7.45259
Ar 12.53642 13.35372 12.06454
Ar 11.34674 16.04913 14.50656
Ar 15.66201 9.34308 14.11788
Ar 14.56727 14.76272 10.05598
Ar 12.82712 12.20083 15.33528
Ar 10.32076 14.65706 20.87632
Ar 12.58973 10.77272 18.61235
Ar 12.28444 14.80260 18.05909
Ar 12.33964 17.06384 22.67785
Ar 12.06166 20.33604 3.12274
Ar 15.45555 17.29443 4.00000
Ar 14.28512 20.34820 0.72103
Ar 11.63796 17.18446 4.64134
Ar 11.54202 19.55020 8.51071
Ar 15.16255 17.93896 7.99343
Ar 14.15340 20.66962 5.95561
Ar 12.04955 17.31266 11.09685
Ar 11.80172 19.69668 13.58738
Ar 14.40861 16.72657 14.08449
Ar 14.47475 22.14055 9.71383
Ar 12.30099 18.39996 17.44798
Ar 10.97870 20.75405 20.53222
Ar 14.88074 17.94677 20.29367
Ar 14.57818 20.59357 16.10938
Ar 16.82611 0.83095 0.57088
Ar 17.41802 3.54089 2.80275
Ar 20.12256 1.41396 1.71866
Ar 17.81711 4.48109 21.43366
Ar 19.02929 0.85790 4.82822
Ar 17.20936 2.85326 7.69761
Ar 20.86658 0.99557 8.85160
Ar 20.26837 3.96308 4.77998
Ar 17.55916 22.63214 11.73037
Ar 17.01834 2.48564 14.29495
Ar 20.17607 22.34346 14.65378
Ar 20.17283 2.07610 12.33093
Ar 17.47344 0.32879 17.10675
Ar 15.56139 2.02663 20.69903
Ar 20.39323 0.87637 21.01317
Ar 20.26408 2.06462 17.77441
Ar 16.28986 6.44882 0.82960
Ar 17.84302 9.78124 2.18903
Ar 20.18832 6.36300 1.51437
Ar 18.75983 8.48014 21.05941
Ar 16.18956 7.40130 4.56590
Ar 17.82068 6.31406 7.51729
Ar 21.31588 5.82534 7.55243
Ar 20.17377 8.19563 4.48559
Ar 17.44605 4.07547 11.33891
Ar 17.51227 6.74283 13.99213
Ar 20.25198 4.53747 15.19171
Ar 20.51141 5.71259 11.05183
Ar 17.05862 4.06696 17.58486
Ar 15.37824 8.09276 20.62572
Ar 20.82908 5.38497 19.46320
Ar 18.86280 7.56709 17.49269
Ar 17.05428 11.57251 20.77265
Ar 16.09325 12.92561 1.78625
Ar 21.21137 12.65648 1.50926
Ar 18.76801 14.80704 0.43936
Ar 17.14270 10.38128 6.18544
Ar 17.85989 11.89974 10.16297
Ar 20.96934 9.65950 7.89533
Ar 19.51232 12.59696 4.98250
Ar 17.95661 8.58953 10.90144
Ar 17.59232 14.19446 14.03056
Ar 18.84981 10.95282 14.23408
Ar 20.86264 13.18181 12.11109
Ar 15.97129 11.34323 17.02665
Ar 16.53789 14.46944 18.73008
Ar 20.68914 11.58842 21.16969
Ar 19.73015 13.60856 17.00832
Ar 16.18894 17.13743 0.69784
Ar 16.81777 20.57969 3.25149
Ar 20.70027 15.97487 3.97427
Ar 19.24434 18.24804 1.04790
Ar 17.18150 14.91166 6.64987
Ar 17.68501 22.11323 7.51943
Ar 18.52274 19.30196 8.94519
Ar 18.96931 19.13696 5.40246
Ar 17.43741 16.32839 11.55532
Ar 17.93763 19.67885 13.61892
Ar 19.71203 16.92368 14.96263
Ar 20.62312 20.91816 11.36106
Ar 16.71722 17.97345 16.80714
Ar 18.31148 20.25844 21.22616
Ar 19.48904 17.00864 20.25134
Ar 19.83137 20.17566 17.86873
256
frame 76
Ar 1.40541 0.01643 22.41357
Ar 21.99369 3.89546 22.77209
Ar 2.69046 1.12080 2.61930
Ar 3.03009 4.26907 1.21319
Ar 0.09267 0.89772 5.32376
Ar 0.45682 3.38793 9.87736
Ar 2.31610 0.85980 8.01766
Ar 3.61222 3.30070 5.03129
Ar 0.71089 0.12101 11.22709
Ar 0.18691 1.43632 15.03338
Ar 2.52859 21.73865 14.24443
Ar 2.88787 2.52193 13.07785
Ar 0.19773 22.02649 17.95186
Ar 2.68473 3.24600 20.06343
Ar 3.65843 20.99644 19.21613
Ar 3.02642 1.14551 16.70914
Ar 0.75721 6.83289 21.90533
Ar 0.08912 9.32629 2.39666
Ar 3.57118 8.29640 22.66578
Ar 5.74077 10.84174 21.14487
Ar 0.86936 5.46136 4.51567
Ar 0.86328 7.11522 9.66022
Ar 4.18986 6.24849 7.55465
Ar 2.26235 9.04057 5.38782
Ar 0.56012 5.08717 13.20207
Ar 21.17948 7.70728 14.79280
Ar 4.05439 5.30538 15.40357
Ar 1.79264 8.35019 13.82797
Ar 0.93517 4.86890 17.07930
Ar 0.26262 8.16334 18.21421
Ar 4.40407 6.94590 18.86695
Ar 3.09266 10.55385 16.23536
Ar 1.61245 11.19629 22.63560
Ar 2.33238 13.76149 2.38649
Ar 4.27377 10.55510 2.45668
Ar 3.53142 14.39818 21.71029
Ar 0.10525 11.95676 4.93783
Ar 21.49423 13.22674 8.56597
Ar 2.11413 12.08469 8.91137
Ar 1.35755 15.09753 6.36344
Ar 21.20766 9.65955 11.53586
Ar 22.61298 14.93416 14.28990
Ar 1.76586 11.87388 13.03989
Ar 1.87642 15.82495 10.57185
Ar 22.32461 10.90066 15.96455
Ar 22.48064 14.55366 20.44953
Ar 1.00203 11.65753 19.41969
Ar 2.51930 15.21561 17.15657
Ar 0.33905 16.31051 0.69216
Ar 22.13300 19.70497 3.47786
Ar 2.44293 17.31911 3.35272
Ar 2.35196 19.22059 0.31351
Ar 21.16952 16.78422 7.42025
Ar 21.68699 20.54716 7.20565
Ar 1.72461 18.68417 8.31184
Ar 2.44109 20.43425 4.86659
Ar 21.30329 16.98293 11.29391
Ar 22.05762 19.50284 14.35824
Ar 2.66576 16.81169 13.83247
Ar 1.56478 19.27418 11.62400
Ar 21.98341 16.93303 17.51105
Ar 22.00887 20.00930 20.89381
Ar 2.33120 17.46347 20.06449
Ar 2.37549 18.71290 16.78052
Ar 5.00228 0.28445 22.49320
Ar 6.73140 2.47431 1.84057
Ar 9.78067 0.65653 2.99179
Ar 8.77373 1.06972 21.52055
Ar 5.50566 22.68874 5.48687
Ar 5.43620 2.84128 8.12618
Ar 7.54271 0.01234 8.60500
Ar 7.35501 3.90617 5.37482
Ar 4.51753 0.04160 11.15377
Ar 6.11678 2.10978 14.97834
Ar 8.34365 22.46241 13.61385
Ar 8.17148 2.38457 11.05648
Ar 5.95262 21.75453 16.60412
Ar 5.46230 1.45023 19.03133
Ar 7.81380 20.85190 19.32479
Ar 8.62371 1.74757 17.63217
Ar 5.73323 4.39086 21.45940
Ar 7.04455 8.41100 1.35726
Ar 8.39606 7.20803 5.01340
Ar 10.05769 10.84497 21.18905
Ar 4.60278 6.57822 3.76052
Ar 4.31549 8.59812 11.16002
Ar 7.58086 6.58431 10.33584
Ar 6.34926 8.96590 7.88144
Ar 4.23910 5.22389 11.10647
Ar 5.77816 8.60515 14.78373
Ar 7.22397 5.56562 13.95492
Ar 8.64364 9.19133 12.77548
Ar 6.83393 4.72583 17.97352
Ar 7.97171 7.69057 20.07950
Ar 9.80641 4.55334 20.65630
Ar 8.55250 7.53876 16.51641
Ar 7.36243 12.65481 1.60736
Ar 5.38169 14.51453 4.11968
Ar 7.46248 10.77506 4.67239
Ar 10.81479 14.07186 1.60158
Ar 4.61802 11.69373 6.46338
Ar 5.57689 14.95375 8.07045
Ar 8.49254 12.37594 9.15111
Ar 9.10724 14.45575 5.34782
Ar 5.68804 12.23153 11.30392
Ar 4.72914 13.07630 14.84671
Ar 9.04316 13.42857 13.19965
Ar 9.28319 15.83144 10.15891
Ar 5.99560 13.63587 18.24717
Ar 6.90695 15.30606 21.38620
Ar 9.47627 12.71498 16.91477
Ar 8.82987 16.17068 17.70505
Ar 5.29254 16.77337 1.46710
Ar 4.91339 20.14574 2.58548
Ar 8.96667 17.03993 2.30177
Ar 8.20253 21.41123 0.79899
Ar 5.86311 17.72051 5.05151
Ar 6.13068 19.92752 9.05850
Ar 9.08860 17.50461 6.77857
Ar 8.59085 20.13891 4.75855
Ar 5.75248 16.14492 11.21541
Ar 5.77125 19.07178 13.09851
Ar 7.90982 16.64056 14.06655
Ar 8.88276 19.05680 11.82410
Ar 5.98161 18.16648 18.51567
Ar 5.78935 19.41906 21.97228
Ar 9.18783 17.89121 21.15353
Ar 9.35621 19.52483 15.92367
Ar 12.09014 0.00906 0.30686
Ar 10.49699 4.31718 3.88671
Ar 14.78573 1.04604 3.30337
Ar 13.50135 3.52660 0.95516
Ar 10.84734 0.10133 6.95195
Ar 10.20386 3.60917 8.58886
Ar 13.88239 2.27240 6.34424
Ar 14.38388 4.61274 4.11239
Ar 11.12842 0.08472 11.15365
Ar 10.90522 2.14291 14.22179
Ar 14.10112 0.07349 13.45882
Ar 13.66564 2.78656 11.59896
Ar 11.51042 22.13276 16.67724
Ar 11.78650 1.84564 19.76180
Ar 14.60308 21.73362 19.57266
Ar 14.27084 1.86880 16.76458
Ar 8.55077 5.30353 1.14457
Ar 10.57419 10.44003 2.63081
Ar 12.16450 7.39435 4.84116
Ar 12.62874 7.07487 1.21884
Ar 10.66140 7.40656 8.03759
Ar 11.04056 9.85425 10.50082
Ar 13.93856 4.91999 8.45238
Ar 13.74877 8.70985 7.36645
Ar 10.82395 5.93247 12.23815
Ar 12.44051 8.16491 14.91203
Ar 14.27808 4.81504 14.49845
Ar 14.74017 6.77868 11.26516
Ar 11.35373 4.20233 16.87998
Ar 11.33983 7.33638 18.86290
Ar 13.49489 5.03966 19.89289
Ar 14.98679 6.95945 17.08762
Ar 13.72353 10.84187 0.30621
Ar 13.09072 13.67634 4.55339
Ar 13.83796 10.37369 3.84034
Ar 14.35772 14.12694 21.49388
Ar 11.17765 10.93120 6.18826
Ar 11.70623 14.70661 7.77386
Ar 14.92618 10.17610 10.41266
Ar 14.38318 12.21013 7.51448
Ar 12.59721 13.43093 12.19713
Ar 11.31611 16.09673 14.52164
Ar 15.60525 9.28110 14.10347
Ar 14.54185 14.72312 10.03033
Ar 12.87663 12.24255 15.28733
Ar 10.35215 14.66180 20.97542
Ar 12.57520 10.82660 18.54845
Ar 12.36537 14.77066 17.99584
Ar 12.25110 16.93925 22.64322
Ar 12.00811 20.39586 3.16604
Ar 15.47349 17.25502 3.98628
Ar 14.31972 20.32370 0.67747
Ar 11.60945 17.18202 4.66034
Ar 11.57092 19.53940 8.52127
Ar 15.12513 17.94306 8.05029
Ar 14.13801 20.73781 5.88385
Ar 12.17510 17.25248 11.02422
Ar 11.82609 19.61053 13.53252
Ar 14.50547 16.76161 14.08041
Ar 14.44542 22.17998 9.64582
Ar 12.27709 18.41828 17.38542
Ar 10.90328 20.72109 20.53675
Ar 14.95257 17.92902 20.18410
Ar 14.57674 20.59101 16.07144
Ar 16.76612 0.81500 0.66453
Ar 17.44783 3.53083 2.72369
Ar 20.10246 1.43360 1.67641
Ar 17.86239 4.53221 21.38918
Ar 18.98197 0.75242 4.93494
Ar 17.28619 2.81611 7.66831
Ar 21.01624 0.90159 8.83393
Ar 20.13737 3.98598 4.88940
Ar 17.54356 22.61126 11.61891
Ar 16.99008 2.45384 14.29202
Ar 20.21340 22.34898 14.59785
Ar 20.16681 2.01873 12.30479
Ar 17.55626 0.27834 17.02979
Ar 15.49063 2.05651 20.71073
Ar 20.41290 0.91967 21.09088
Ar 20.34997 1.98794 17.76270
Ar 16.27615 6.52499 0.94476
Ar 17.76794 9.77102 2.27921
Ar 20.12830 6.50338 1.62457
Ar 18.67113 8.47461 21.08290
Ar 16.24432 7.45615 4.65269
Ar 17.88226 6.38376 7.46220
Ar 21.30865 5.88938 7.48688
Ar 20.31565 8.03612 4.46373
Ar 17.43935 3.95369 11.26258
Ar 17.59648 6.74335 13.90837
Ar 20.28936 4.41627 15.31249
Ar 20.62664 5.63525 10.96458
Ar 17.03245 4.10140 17.56540
Ar 15.36973 8.16350 20.52432
Ar 20.84385 5.38315 19.42878
Ar 18.96131 7.57706 17.53058
Ar 17.07347 11.55276 20.68705
Ar 16.02066 12.96249 1.90235
Ar 21.22986 12.63074 1.58262
Ar 18.73517 14.84376 0.42145
Ar 17.18637 10.39014 6.21966
Ar 17.85005 11.84428 10.23593
Ar 20.97462 9.54060 7.88436
Ar 19.58558 12.51456 4.89557
Ar 18.02528 8.54616 10.88073
Ar 17.58384 14.15905 14.10037
Ar 18.71261 10.92329 14.19858
Ar 20.86884 13.21443 12.07277
Ar 15.91672 11.24656 17.06432
Ar 16.61955 14.48446 18.67888
Ar 20.61851 11.64686 21.06906
Ar 19.92705 13.61279 17.09972
Ar 16.11665 17.08838 0.68519
Ar 16.79007 20.59385 3.21791
Ar 20.65214 16.10453 3.92874
Ar 19.26737 18.23275 1.07345
Ar 17.13027 14.87419 6.79657
Ar 17.62186 22.11907 7.54347
Ar 18.50714 19.38937 8.96185
Ar 18.92900 19.22383 5.41460
Ar 17.41091 16.31840 11.50608
Ar 17.91926 19.70449 13.64138
Ar 19.75650 16.99035 14.99387
Ar 20.56376 20.88074 11.42342
Ar 16.85144 17.92751 16.81774
Ar 18.49079 20.33051 21.14577
Ar 19.52208 16.89050 20.20329
Ar 19.76311 20.15881 17.91301
256
frame 77
Ar 1.44837 0.03034 22.44735
Ar 21.99198 3.87244 22.76496
Ar 2.61557 1.19442 2.59838
Ar 2.92869 4.29670 1.13425
Ar 0.04088 0.77257 5.33432
Ar 0.43298 3.40517 9.83818
Ar 2.33363 0.78877 8.11672
Ar 3.55552 3.34576 5.11854
Ar 0.69792 0.10598 11.35717
Ar 0.20801 1.44952 15.01503
Ar 2.46704 21.71888 14.23385
Ar 2.93158 2.52225 12.93425
Ar 0.17276 22.11952 17.94150
Ar 2.66826 3.30034 20.03896
Ar 3.69670 21.02654 19.22831
Ar 3.14012 1.06439 16.70256
Ar 0.76227 6.82797 21.91832
Ar 0.09825 9.25691 2.44418
Ar 3.64972 8.25798 22.72748
Ar 5.69199 10.89234 21.16342
Ar 0.89458 5.50114 4.60122
Ar 0.85081 7.23368 9.71560
Ar 4.25241 6.12130 7.57739
Ar 2.26024 9.03079 5.39324
Ar 0.57396 5.03083 13.20127
Ar 21.17696 7.70308 14.70862
Ar 4.00438 5.34868 15.40702
Ar 1.65194 8.31431 13.85259
Ar 0.80630 4.83742 17.10335
Ar 0.33245 8.12550 18.20852
Ar 4.34127 6.91838 18.89612
Ar 3.06471 10.69382 16.31443
Ar 1.76837 11.31969 22.70202
Ar 2.39207 13.77422 2.49234
Ar 4.18715 10.46742 2.45375
Ar 3.50621 14.37064 21.57464
Ar 0.13252 11.96071 4.82117
Ar 21.61575 13.27568 8.59264
Ar 2.07444 12.02647 8.93043
Ar 1.30627 15.04866 6.48206
Ar 21.22090 9.67028 11.61679
Ar 22.61320 14.98637 14.31826
Ar 1.60599 11.96362 13.01018
Ar 1.82070 15.82502 10.51375
Ar 22.32796 10.87358 15.94506
Ar 22.52339 14.60436 20.53374
Ar 0.92331 11.63173 19.43095
Ar 2.55969 15.18476 17.15613
Ar 0.35847 16.32020 0.64330
Ar 22.13404 19.66944 3.54500
Ar 2.46926 17.25734 3.40894
Ar 2.30505 19.28565 0.26264
Ar 21.07304 16.92298 7.57127
Ar 21.64904 20.44717 7.22814
Ar 1.74543 18.84985 8.13887
Ar 2.45001 20.42064 4.91086
Ar 21.29546 17.01286 11.28138
Ar 22.20178 19.58199 14.30106
Ar 2.72001 16.89448 13.94044
Ar 1.44951 19.21132 11.56119
Ar 22.07939 16.87738 17.56296
Ar 21.94137 20.02560 20.73073
Ar 2.30402 17.44788 19.88782
Ar 2.45259 18.74606 16.66656
Ar 5.10704 0.28301 22.44721
Ar 6.72863 2.49953 1.89053
Ar 9.86437 0.77253 3.11804
Ar 8.70179 1.16101 21.43697
Ar 5.52908 22.80915 5.47889
Ar 5.34471 2.83068 8.25413
Ar 7.61549 0.07900 8.55229
Ar 7.27822 3.96977 5.34946
Ar 4.48604 0.11179 11.18933
Ar 6.11616 2.11446 14.88630
Ar 8.37167 22.45164 13.53883
Ar 8.11479 2.37761 11.03037
Ar 6.06357 21.65278 16.68079
Ar 5.44799 1.52469 18.91072
Ar 7.81662 20.87805 19.38076
Ar 8.61137 1.59504 17.61428
Ar 5.71248 4.30141 21.42220
Ar 7.07327 8.44931 1.49740
Ar 8.36635 7.24026 4.93794
Ar 9.99126 10.97900 21.17570
Ar 4.54460 6.53923 3.76502
Ar 4.29067 8.55166 11.12140
Ar 7.58311 6.49183 10.34183
Ar 6.27586 9.00871 7.85660
Ar 4.33615 5.16685 10.93579
Ar 5.71098 8.60791 14.82400
Ar 7.26900 5.50823 14.01682
Ar 8.59518 9.25530 12.85753
Ar 6.92680 4.80111 17.82588
Ar 8.02580 7.70183 20.11077
Ar 9.74357 4.62216 20.57666
Ar 8.56293 7.55587 16.43225
Ar 7.35089 12.67974 1.56493
Ar 5.33274 14.52434 4.08861
Ar 7.53366 10.72275 4.70195
Ar 10.87147 14.08758 1.64827
Ar 4.56160 11.58279 6.49259
Ar 5.57935 14.94585 8.05088
Ar 8.48839 12.30802 9.08293
Ar 9.02692 14.44121 5.21875
Ar 5.72639 12.24532 11.17137
Ar 4.65142 12.97501 14.91636
Ar 8.98841 13.46406 13.11371
Ar 9.18655 15.74757 10.08485
Ar 6.03272 13.82703 18.18998
Ar 6.89802 15.27119 21.37231
Ar 9.49873 12.72587 16.81453
Ar 8.80838 16.18517 17.71442
Ar 5.32225 16.79554 1.39218
Ar 4.88899 20.26041 2.60660
Ar 8.98042 16.87415 2.33003
Ar 8.23859 21.47296 0.70547
Ar 5.87081 17.77655 5.10457
Ar 6.21655 19.99275 9.13591
Ar 9.06335 17.43348 6.79627
Ar 8.50386 20.20749 4.80113
Ar 5.66763 16.08888 11.29435
Ar 5.80220 19.08912 13.16631
Ar 7.91059 16.66943 14.08368
Ar 8.91653 19.07981 11.84062
Ar 6.01536 18.14203 18.47805
Ar 5.87971 19.34368 22.06632
Ar 9.16311 17.87879 21.22360
Ar 9.27187 19.43508 15.84136
Ar 12.06073 0.10446 0.27782
Ar 10.56422 4.28774 3.96877
Ar 14.77627 1.10761 3.23876
Ar 13.50823 3.39085 0.86461
Ar 10.85955 0.13946 7.07133
Ar 10.21032 3.61094 8.67942
Ar 13.73464 2.24385 6.32945
Ar 14.31153 4.61936 4.09047
Ar 11.05888 22.82103 11.09671
Ar 10.90566 2.14377 14.25092
Ar 14.09892 0.11882 13.51359
Ar 13.60037 2.68673 11.58686
Ar 11.52433 22.16706 16.74156
Ar 11.81009 1.87011 19.80576
Ar 14.57083 21.70794 19.57833
Ar 14.39630 2.04019 16.74290
Ar 8.50844 5.30586 1.21634
Ar 10.61793 10.43758 2.70071
Ar 12.11736 7.34607 4.79811
Ar 12.71183 6.99647 1.30143
Ar 10.62626 7.47450 8.07122
Ar 10.96161 9.91283 10.60556
Ar 13.82410 5.02310 8.56514
Ar 13.68564 8.60722 7.46663
Ar 10.92810 5.96265 12.24188
Ar 12.40814 8.09303 14.90601
Ar 14.27467 4.82825 14.51947
Ar 14.74302 6.80041 11.37458
Ar 11.46130 4.22654 16.89631
Ar 11.41936 7.40796 18.93800
Ar 13.40609 4.87278 19.86561
Ar 15.01303 6.93491 17.14554
Ar 13.72022 10.78196 0.39839
Ar 13.12799 13.65159 4.55072
Ar 13.93060 10.45379 3.87452
Ar 14.27304 14.15651 21.36914
Ar 11.06451 10.87926 6.11962
Ar 11.78545 14.68302 7.67664
Ar 14.88988 10.13846 10.39636
Ar 14.36407 12.29111 7.57498
Ar 12.59826 13.48674 12.33900
Ar 11.24166 16.12562 14.55452
Ar 15.50702 9.27512 14.07477
Ar 14.58506 14.71867 9.94747
Ar 12.92825 12.26962 15.26827
Ar 10.38164 14.61713 21.04652
Ar 12.56400 10.87875 18.49426
Ar 12.46197 14.73899 17.93059
Ar 12.19274 16.84648 22.63463
Ar 11.92074 20.46256 3.21274
Ar 15.48094 17.21343 4.01494
Ar 14.39359 20.27371 0.59842
Ar 11.63217 17.16819 4.66157
Ar 11.59819 19.54783 8.51879
Ar 15.08605 17.94289 8.10953
Ar 14.13476 20.81615 5.82738
Ar 12.34583 17.18453 10.96513
Ar 11.88879 19.55458 13.48943
Ar 14.66220 16.80896 14.06774
Ar 14.41253 22.21824 9.56997
Ar 12.25464 18.41582 17.34577
Ar 10.89337 20.71189 20.53983
Ar 15.02412 17.91260 20.06493
Ar 14.61037 20.59432 16.02330
Ar 16.74273 0.75162 0.74282
Ar 17.47254 3.54193 2.64249
Ar 20.10495 1.44589 1.64941
Ar 17.92753 4.58262 21.33991
Ar 18.94410 0.63817 5.00981
Ar 17.36645 2.78674 7.63996
Ar 21.14097 0.80585 8.80022
Ar 20.01997 4.02329 4.98870
Ar 17.50199 22.60272 11.49650
Ar 16.96672 2.41118 14.29856
Ar 20.21553 22.35346 14.58038
Ar 20.19554 1.98838 12.26499
Ar 17.60399 0.19512 16.96000
Ar 15.39405 2.11060 20.67565
Ar 20.43276 0.94998 21.15954
Ar 20.46966 1.91922 17.75699
Ar 16.25416 6.61371 1.07411
Ar 17.69875 9.76356 2.36282
Ar 20.05519 6.61211 1.66719
Ar 18.62928 8.44735 21.12559
Ar 16.29036 7.51596 4.71280
Ar 17.93535 6.45956 7.43318
Ar 21.32018 5.94996 7.41632
Ar 20.45147 7.90840 4.52321
Ar 17.41091 3.85295 11.15492
Ar 17.72619 6.67263 13.83442
Ar 20.31706 4.28662 15.42010
Ar 20.72394 5.56862 10.89278
Ar 17.02164 4.13475 17.55600
Ar 15.32121 8.23845 20.41964
Ar 20.87157 5.36657 19.40491
Ar 19.03417 7.59981 17.55932
Ar 17.07196 11.54315 20.61024
Ar 15.95074 13.01331 2.03240
Ar 21.26671 12.60485 1.67057
Ar 18.71454 14.85652 0.38903
Ar 17.23036 10.39723 6.27206
Ar 17.87110 11.84769 10.29697
Ar 20.97566 9.42645 7.86794
Ar 19.63779 12.44803 4.80446
Ar 18.08994 8.45497 10.85177
Ar 17.56226 14.12106 14.19790
Ar 18.60068 10.86886 14.16541
Ar 20.84573 13.23072 12.01501
Ar 15.87552 11.14796 17.10912
Ar 16.70285 14.51933 18.61799
Ar 20.54258 11.69108 20.96166
Ar 20.12747 13.61898 17.19250
Ar 16.00201 17.03258 0.63804
Ar 16.75124 20.63235 3.16286
Ar 20.60640 16.22767 3.86985
Ar 19.33535 18.24355 1.11991
Ar 17.07958 14.83659 6.94442
Ar 17.50974 22.15784 7.57702
Ar 18.50795 19.39281 9.02510
Ar 18.89943 19.28667 5.43384
Ar 17.39444 16.34006 11.43060
Ar 17.88450 19.72229 13.66820
Ar 19.77189 17.03635 14.99904
Ar 20.52908 20.83422 11.46380
Ar 16.98275 17.87414 16.84257
Ar 18.63312 20.41993 21.07827
Ar 19.54768 16.77174 20.15463
Ar 19.70172 20.13754 17.92768
256
frame 78
Ar 1.47089 0.03858 22.44610
Ar 21.99384 3.84188 22.75648
Ar 2.54893 1.23554 2.59807
Ar 2.82872 4.34633 1.04544
Ar 22.80437 0.64847 5.33667
Ar 0.43312 3.43336 9.79705
Ar 2.35632 0.70755 8.21192
Ar 3.51465 3.38013 5.22363
Ar 0.68202 0.08425 11.49487
Ar 0.20163 1.49968 14.98311
Ar 2.42022 21.65573 14.20128
Ar 2.97772 2.53663 12.81267
Ar 0.15213 22.20081 17.93086
Ar 2.61722 3.35878 20.01641
Ar 3.72524 21.05919 19.26335
Ar 3.22645 1.00464 16.68895
Ar 0.73298 6.82266 21.91199
Ar 0.11813 9.18063 2.47082
Ar 3.76922 8.20314 22.78158
Ar 5.64622 10.94971 21.18377
Ar 0.90241 5.55590 4.67729
Ar 0.86204 7.36370 9.78119
Ar 4.29993 6.00625 7.57765
Ar 2.25649 9.00858 5.40852
Ar 0.57713 4.97293 13.20866
Ar 21.16106 7.69420 14.62125
Ar 3.94183 5.38723 15.40932
Ar 1.53726 8.28942 13.87323
Ar 0.68209 4.78467 17.11594
Ar 0.40288 8.09861 18.20808
Ar 4.26092 6.90270 18.93179
Ar 2.97608 10.73967 16.46528
Ar 1.91733 11.44550 22.78784
Ar 2.42985 13.77851 2.58679
Ar 4.10794 10.40160 2.48394
Ar 3.46703 14.33968 21.44003
Ar 0.19897 11.96240 4.72261
Ar 21.72102 13.32671 8.60215
Ar 2.03797 11.96405 8.96530
Ar 1.26633 15.00549 6.59798
Ar 21.26230 9.68312 11.70036
Ar 22.62716 15.04213 14.37143
Ar 1.44510 12.05497 12.96948
Ar 1.76980 15.80154 10.44397
Ar 22.31933 10.86010 15.91891
Ar 22.56189 14.67875 20.60858
Ar 0.86372 11.58588 19.39180
Ar 2.60027 15.12743 17.15686
Ar 0.36470 16.33100 0.60682
Ar 22.12381 19.63130 3.60049
Ar 2.48703 17.19061 3.48118
Ar 2.25689 19.36051 0.20878
Ar 20.97364 17.05236 7.72268
Ar 21.61111 20.37164 7.25167
Ar 1.78720 18.99633 7.95336
Ar 2.44720 20.43747 4.99138
Ar 21.27518 17.04567 11.27644
Ar 22.36085 19.63828 14.27639
Ar 2.79888 16.95040 14.00751
Ar 1.34443 19.17223 11.49803
Ar 22.19345 16.83058 17.62692
Ar 21.92543 20.02720 20.57813
Ar 2.27453 17.43544 19.73882
Ar 2.52434 18.82982 16.57201
Ar 5.20478 0.27498 22.39219
Ar 6.70791 2.50220 1.95479
Ar 9.94783 0.89327 3.25845
Ar 8.62407 1.29030 21.32611
Ar 5.54930 0.10800 5.46619
Ar 5.25992 2.80987 8.39446
Ar 7.71003 0.17153 8.47877
Ar 7.18803 4.01338 5.32846
Ar 4.48320 0.15123 11.20366
Ar 6.11434 2.12601 14.79220
Ar 8.39382 22.42354 13.46976
Ar 8.03484 2.38626 11.05432
Ar 6.16222 21.54566 16.69166
Ar 5.48227 1.60707 18.85575
Ar 7.81245 20.93080 19.46124
Ar 8.63415 1.43528 17.58616
Ar 5.71606 4.21946 21.39517
Ar 7.10159 8.50945 1.63591
Ar 8.34174 7.28526 4.86021
Ar 9.92005 11.10583 21.16973
Ar 4.49596 6.51009 3.76275
Ar 4.26721 8.54076 11.08425
Ar 7.59857 6.39969 10.34345
Ar 6.23204 9.03753 7.84696
Ar 4.42046 5.07438 10.79008
Ar 5.60562 8.62770 14.85853
Ar 7.32515 5.42548 14.04458
Ar 8.52426 9.31219 12.96321
Ar 7.02310 4.85637 17.67858
Ar 8.05920 7.72543 20.15287
Ar 9.67154 4.68607 20.49885
Ar 8.61879 7.59557 16.36717
Ar 7.34013 12.70578 1.51386
Ar 5.30299 14.50593 4.07931
Ar 7.60540 10.68001 4.72923
Ar 10.94213 14.06959 1.71084
Ar 4.49367 11.50908 6.50031
Ar 5.58390 14.92913 8.00404
Ar 8.50054 12.23596 8.99271
Ar 8.94167 14.38612 5.07106
Ar 5.74412 12.25687 11.05152
Ar 4.64604 12.97320 14.91520
Ar 8.93068 13.47925 13.02001
Ar 9.07878 15.66316 10.01606
Ar 6.06318 14.01338 18.13413
Ar 6.88509 15.22673 21.36040
Ar 9.52067 12.72972 16.71433
Ar 8.81043 16.19989 17.72632
Ar 5.34981 16.79431 1.32389
Ar 4.89861 20.39072 2.60815
Ar 8.96645 16.73358 2.35145
Ar 8.28147 21.49221 0.64843
Ar 5.87017 17.84578 5.16817
Ar 6.27613 19.99968 9.22398
Ar 9.01204 17.37620 6.87142
Ar 8.41911 20.30435 4.82783
Ar 5.57510 16.02991 11.38734
Ar 5.77050 19.15994 13.24611
Ar 7.89517 16.65687 14.12727
Ar 8.96999 19.11739 11.81186
Ar 6.01591 18.09561 18.43330
Ar 5.96019 19.28078 22.12469
Ar 9.11580 17.87754 21.29346
Ar 9.15493 19.35868 15.76736
Ar 12.02857 0.20958 0.24988
Ar 10.64512 4.24493 4.05225
Ar 14.71844 1.14492 3.23219
Ar 13.51120 3.26580 0.75074
Ar 10.87858 0.17209 7.18360
Ar 10.23860 3.62574 8.74495
Ar 13.57549 2.17749 6.36356
Ar 14.24836 4.66024 4.04763
Ar 10.98814 22.72665 11.03167
Ar 10.90476 2.13598 14.25892
Ar 14.10258 0.11932 13.59280
Ar 13.52858 2.64555 11.52875
Ar 11.53197 22.21256 16.81200
Ar 11.83361 1.84783 19.83658
Ar 14.53194 21.66882 19.58104
Ar 14.49082 2.18234 16.73764
Ar 8.48618 5.32033 1.27546
Ar 10.64487 10.42856 2.73990
Ar 12.05236 7.30320 4.72946
Ar 12.78256 6.92393 1.37396
Ar 10.53879 7.51359 8.11354
Ar 10.92369 9.98959 10.68971
Ar 13.70607 5.12319 8.66313
Ar 13.69066 8.52914 7.57967
Ar 11.03184 5.98738 12.24073
Ar 12.34032 8.01863 14.90756
Ar 14.26388 4.84060 14.51689
Ar 14.74676 6.81154 11.50574
Ar 11.55785 4.27473 16.92824
Ar 11.48951 7.51404 18.99550
Ar 13.35980 4.72038 19.85582
Ar 15.03795 6.93798 17.20824
Ar 13.70761 10.71333 0.46284
Ar 13.15787 13.66698 4.53393
Ar 14.05891 10.49264 3.92554
Ar 14.18906 14.17988 21.24653
Ar 10.94404 10.83391 6.08037
Ar 11.84483 14.67527 7.58840
Ar 14.82977 10.11475 10.39679
Ar 14.35350 12.33929 7.61726
Ar 12.56653 13.55875 12.41902
Ar 11.17451 16.14172 14.59859
Ar 15.39651 9.29009 14.03282
Ar 14.67208 14.73054 9.85194
Ar 12.98867 12.26333 15.31087
Ar 10.39409 14.51977 21.06830
Ar 12.54956 10.92817 18.45697
Ar 12.56579 14.71166 17.87076
Ar 12.18386 16.80946 22.66103
Ar 11.81365 20.53301 3.24312
Ar 15.48246 17.17126 4.07679
Ar 14.46925 20.21844 0.49499
Ar 11.69920 17.14688 4.64906
Ar 11.62120 19.57109 8.50549
Ar 15.04658 17.94381 8.16720
Ar 14.14646 20.90146 5.79194
Ar 12.52033 17.10776 10.91533
Ar 11.98581 19.52797 13.46254
Ar 14.83447 16.86017 14.05288
Ar 14.36974 22.25554 9.48940
Ar 12.23362 18.39887 17.32617
Ar 10.95440 20.72389 20.54599
Ar 15.09245 17.89612 19.94135
Ar 14.67613 20.59271 15.97461
Ar 16.76502 0.64661 0.74981
Ar 17.48672 3.57917 2.56425
Ar 20.12442 1.44685 1.66402
Ar 17.99641 4.63273 21.29638
Ar 18.93603 0.53628 5.02283
Ar 17.44387 2.77827 7.60885
Ar 21.23900 0.70889 8.75379
Ar 19.90591 4.05464 5.06949
Ar 17.44151 22.60582 11.36918
Ar 16.95747 2.36634 14.29775
Ar 20.18945 22.35489 14.60276
Ar 20.25190 1.98521 12.20965
Ar 17.62141 0.09055 16.90350
Ar 15.30367 2.16639 20.62475
Ar 20.45396 0.96627 21.19866
Ar 20.60651 1.84072 17.77516
Ar 16.23439 6.70460 1.19939
Ar 17.64074 9.76729 2.43786
Ar 19.96652 6.67632 1.61407
Ar 18.62923 8.40043 21.18752
Ar 16.30771 7.56231 4.73750
Ar 17.98116 6.53297 7.44144
Ar 21.37087 5.99999 7.36330
Ar 20.57954 7.82443 4.67834
Ar 17.36568 3.77155 11.02958
Ar 17.86945 6.56361 13.77758
Ar 20.33449 4.17928 15.49427
Ar 20.78563 5.51591 10.84049
Ar 17.04487 4.16837 17.56044
Ar 15.23531 8.31454 20.32179
Ar 20.91228 5.33334 19.39569
Ar 19.08189 7.63801 17.57450
Ar 17.04355 11.54552 20.54269
Ar 15.88696 13.07988 2.16757
Ar 21.31668 12.58193 1.74247
Ar 18.70638 14.84238 0.34829
Ar 17.27294 10.41278 6.34866
Ar 17.91107 11.89128 10.34881
Ar 20.97196 9.33355 7.85518
Ar 19.65447 12.39795 4.71966
Ar 18.14469 8.33492 10.80553
Ar 17.52993 14.09965 14.30883
Ar 18.51958 10.79023 14.13312
Ar 20.80211 13.24175 11.95740
Ar 15.85139 11.04834 17.15805
Ar 16.78643 14.56645 18.54865
Ar 20.46751 11.72813 20.85918
Ar 20.32705 13.62815 17.28690
Ar 15.87033 16.97277 0.56762
Ar 16.70927 20.68722 3.09714
Ar 20.56555 16.33766 3.81293
Ar 19.41846 18.27710 1.17095
Ar 17.03298 14.79939 7.09074
Ar 17.34777 22.19200 7.64450
Ar 18.51330 19.33302 9.11754
Ar 18.86889 19.32921 5.45466
Ar 17.39179 16.37913 11.34668
Ar 17.83115 19.73615 13.69771
Ar 19.78306 17.06706 14.98058
Ar 20.52125 20.78363 11.47984
Ar 17.09583 17.82059 16.88343
Ar 18.70838 20.52263 21.05336
Ar 19.56263 16.65975 20.10590
Ar 19.65621 20.10963 17.88736
256
frame 79
Ar 1.47469 0.04423 22.40618
Ar 22.00004 3.81031 22.74715
Ar 2.49424 1.25714 2.62586
Ar 2.73333 4.41231 0.95096
Ar 22.74135 0.52580 5.33300
Ar 0.46639 3.45808 9.74964
Ar 2.37480 0.61486 8.29776
Ar 3.48514 3.38964 5.33708
Ar 0.65371 0.06382 11.62141
Ar 0.18617 1.57861 14.94069
Ar 2.40490 21.56643 14.15974
Ar 3.01026 2.58244 12.73114
Ar 0.15426 22.25543 17.91812
Ar 2.53709 3.41794 19.99422
Ar 3.74635 21.09251 19.31738
Ar 3.26170 0.95378 16.64412
Ar 0.68824 6.82833 21.89110
Ar 0.14886 9.09877 2.47156
Ar 3.90535 8.12110 22.81518
Ar 5.60348 11.01349 21.20561
Ar 0.89498 5.62377 4.73840
Ar 0.89085 7.49977 9.85242
Ar 4.33370 5.92984 7.53563
Ar 2.24694 8.97046 5.43554
Ar 0.56736 4.91485 13.22535
Ar 21.11477 7.66817 14.54797
Ar 3.86992 5.41814 15.40979
Ar 1.47230 8.28555 13.88666
Ar 0.57799 4.71111 17.11078
Ar 0.47338 8.08210 18.21027
Ar 4.17240 6.89137 18.97137
Ar 2.85106 10.71574 16.66526
Ar 2.04574 11.56033 0.04325
Ar 2.43188 13.77364 2.65738
Ar 4.04316 10.36112 2.56035
Ar 3.42043 14.31412 21.30300
Ar 0.29942 11.95957 4.65692
Ar 21.79378 13.37878 8.59798
Ar 2.01365 11.89210 9.01759
Ar 1.24350 14.97534 6.70278
Ar 21.32346 9.70110 11.77565
Ar 22.65045 15.09567 14.43519
Ar 1.29057 12.14249 12.92124
Ar 1.72467 15.75759 10.36701
Ar 22.29322 10.85510 15.88535
Ar 22.59581 14.74337 20.65282
Ar 0.81915 11.53352 19.33248
Ar 2.64032 15.04586 17.15298
Ar 0.36731 16.35559 0.60723
Ar 22.10861 19.59605 3.64549
Ar 2.49898 17.13272 3.56427
Ar 2.21361 19.43612 0.15403
Ar 20.87545 17.14469 7.86232
Ar 21.57029 20.33813 7.27355
Ar 1.85308 19.10323 7.80507
Ar 2.44642 20.49344 5.06264
Ar 21.23943 17.07563 11.28801
Ar 22.50319 19.67077 14.30004
Ar 2.89641 16.95645 13.99814
Ar 1.26513 19.15099 11.41082
Ar 22.31020 16.79840 17.68723
Ar 21.97680 20.00832 20.43940
Ar 2.24856 17.43455 19.63191
Ar 2.58996 18.97766 16.53141
Ar 5.28859 0.26159 22.32918
Ar 6.66952 2.48045 2.02955
Ar 10.02429 1.00251 3.40175
Ar 8.53997 1.44007 21.20500
Ar 5.56550 0.23294 5.44888
Ar 5.19617 2.75104 8.52376
Ar 7.79892 0.26764 8.39224
Ar 7.09078 4.04022 5.31525
Ar 4.52363 0.13745 11.18698
Ar 6.11264 2.13509 14.69984
Ar 8.40520 22.38070 13.41262
Ar 7.93519 2.41214 11.12421
Ar 6.23829 21.44180 16.63420
Ar 5.56758 1.70041 18.87170
Ar 7.80366 20.99668 19.57409
Ar 8.68704 1.27952 17.54422
Ar 5.74363 4.14812 21.38021
Ar 7.12996 8.58964 1.76620
Ar 8.32578 7.32591 4.78735
Ar 9.84220 11.20455 21.17024
Ar 4.45793 6.49142 3.75174
Ar 4.24502 8.55247 11.05086
Ar 7.63376 6.31397 10.34093
Ar 6.22402 9.03521 7.85960
Ar 4.48071 4.97280 10.71020
Ar 5.47269 8.65560 14.89082
Ar 7.38614 5.33105 14.03783
Ar 8.43752 9.36322 13.08315
Ar 7.11193 4.88538 17.54477
Ar 8.06800 7.76987 20.20029
Ar 9.60136 4.73446 20.42277
Ar 8.71639 7.66667 16.31830
Ar 7.33131 12.73129 1.45897
Ar 5.31157 14.47712 4.10024
Ar 7.65999 10.66175 4.75372
Ar 11.02840 14.01049 1.78046
Ar 4.41511 11.48800 6.47833
Ar 5.59111 14.90748 7.94210
Ar 8.52982 12.15884 8.87724
Ar 8.85840 14.30098 4.92211
Ar 5.73849 12.26521 10.94633
Ar 4.69505 13.04038 14.85321
Ar 8.87008 13.47377 12.92073
Ar 8.97203 15.58395 9.95923
Ar 6.08127 14.18747 18.07579
Ar 6.87244 15.17181 21.35131
Ar 9.54164 12.73028 16.61470
Ar 8.84917 16.21384 17.74154
Ar 5.36137 16.75182 1.29160
Ar 4.93201 20.52935 2.59359
Ar 8.92173 16.63019 2.36360
Ar 8.34353 21.49226 0.62242
Ar 5.85461 17.91682 5.23452
Ar 6.32040 19.97371 9.31846
Ar 8.95218 17.33221 6.97022
Ar 8.34079 20.41995 4.84754
Ar 5.47689 15.97008 11.48621
Ar 5.70063 19.27088 13.33139
Ar 7.84158 16.60465 14.17594
Ar 9.03017 19.15791 11.75192
Ar 5.98628 18.04351 18.38808
Ar 6.02360 19.25354 22.13248
Ar 9.06396 17.88371 21.35951
Ar 9.03230 19.31400 15.70791
Ar 11.98897 0.29502 0.22853
Ar 10.72197 4.19196 4.13772
Ar 14.62554 1.16007 3.27508
Ar 13.51606 3.17859 0.62574
Ar 10.90711 0.18940 7.28479
Ar 10.28330 3.65016 8.79125
Ar 13.42518 2.10896 6.42658
Ar 14.20523 4.71101 3.99494
Ar 10.92116 22.62900 10.95965
Ar 10.90248 2.12412 14.25192
Ar 14.10594 0.09767 13.67743
Ar 13.45146 2.64885 11.43627
Ar 11.54170 22.25645 16.88342
Ar 11.82966 1.75732 19.85001
Ar 14.49002 21.62213 19.58056
Ar 14.53702 2.27318 16.75591
Ar 8.48495 5.34611 1.32367
Ar 10.66254 10.41146 2.73598
Ar 11.98024 7.29650 4.67468
Ar 12.83205 6.85574 1.42363
Ar 10.40798 7.53139 8.15924
Ar 10.92103 10.07848 10.75696
Ar 13.58560 5.20619 8.74482
Ar 13.73955 8.47041 7.67240
Ar 11.13043 6.00322 12.22945
Ar 12.24320 7.94467 14.92432
Ar 14.24953 4.85644 14.48908
Ar 14.75350 6.80894 11.64747
Ar 11.63026 4.34106 16.96018
Ar 11.55784 7.63510 19.04134
Ar 13.34509 4.65745 19.85842
Ar 15.05360 6.96135 17.25381
Ar 13.69013 10.64094 0.50011
Ar 13.18039 13.71858 4.50590
Ar 14.20679 10.48360 3.99917
Ar 14.11180 14.19254 21.12620
Ar 10.83503 10.79622 6.08570
Ar 11.86846 14.69330 7.51668
Ar 14.76599 10.11414 10.42078
Ar 14.35186 12.32241 7.62298
Ar 12.51954 13.65667 12.41996
Ar 11.13920 16.14688 14.65038
Ar 15.28827 9.31201 13.98466
Ar 14.78757 14.74716 9.78174
Ar 13.06136 12.22343 15.39580
Ar 10.39136 14.40485 21.04541
Ar 12.52603 10.97365 18.44887
Ar 12.67136 14.69428 17.82013
Ar 12.21449 16.82682 22.71596
Ar 11.69695 20.60343 3.25331
Ar 15.48334 17.12956 4.15760
Ar 14.52710 20.17156 0.36997
Ar 11.78796 17.12326 4.63242
Ar 11.63919 19.60253 8.48622
Ar 15.01001 17.95154 8.21819
Ar 14.17014 20.99093 5.77568
Ar 12.67291 17.03883 10.87879
Ar 12.10669 19.52434 13.45175
Ar 15.00372 16.91315 14.03877
Ar 14.30221 22.29238 9.41161
Ar 12.21329 18.37721 17.32146
Ar 11.06991 20.74636 20.55385
Ar 15.15457 17.87914 19.81871
Ar 14.76598 20.57224 15.94059
Ar 16.81949 0.51653 0.68961
Ar 17.48646 3.63473 2.48658
Ar 20.15689 1.43510 1.72854
Ar 18.05817 4.67930 21.26473
Ar 18.95346 0.44337 4.98787
Ar 17.51682 2.79566 7.56968
Ar 21.31342 0.61748 8.70399
Ar 19.79058 4.07104 5.12765
Ar 17.37479 22.61839 11.24694
Ar 16.97086 2.32601 14.27634
Ar 20.15093 22.35158 14.64993
Ar 20.32524 2.00182 12.14256
Ar 17.60979 22.80326 16.86791
Ar 15.25994 2.18803 20.57552
Ar 20.47692 0.96840 21.20186
Ar 20.73330 1.75334 17.82420
Ar 16.22521 6.79022 1.30714
Ar 17.60041 9.79456 2.49989
Ar 19.87072 6.71834 1.51314
Ar 18.65275 8.34158 21.26262
Ar 16.28998 7.58559 4.73694
Ar 18.02191 6.60010 7.48759
Ar 21.47398 6.00807 7.36513
Ar 20.68543 7.77779 4.84054
Ar 17.30812 3.70685 10.90331
Ar 18.00250 6.43191 13.73966
Ar 20.33488 4.11002 15.52121
Ar 20.80075 5.48424 10.80991
Ar 17.11992 4.20884 17.58208
Ar 15.12748 8.39794 20.24902
Ar 20.95933 5.28824 19.40332
Ar 19.10898 7.68960 17.57728
Ar 16.98670 11.55705 20.48761
Ar 15.83501 13.16170 2.29723
Ar 21.37816 12.56616 1.76962
Ar 18.70738 14.80763 0.30505
Ar 17.31378 10.43831 6.45063
Ar 17.95222 11.95057 10.39086
Ar 20.96229 9.28504 7.86162
Ar 19.63417 12.36111 4.65407
Ar 18.19013 8.20889 10.73932
Ar 17.49092 14.09647 14.42627
Ar 18.46947 10.69407 14.10080
Ar 20.74928 13.26049 11.91796
Ar 15.84792 10.94619 17.20591
Ar 16.86762 14.61526 18.47361
Ar 20.40118 11.76416 20.76551
Ar 20.52163 13.64078 17.38385
Ar 15.73964 16.90332 0.48957
Ar 16.67255 20.74744 3.03544
Ar 20.53245 16.42126 3.77285
Ar 19.49800 18.33317 1.20804
Ar 16.99930 14.76507 7.22775
Ar 17.16388 22.19694 7.73338
Ar 18.50414 19.24107 9.21719
Ar 18.82477 19.35628 5.47178
Ar 17.40744 16.42890 11.26492
Ar 17.76008 19.74994 13.72686
Ar 19.80947 17.08597 14.94041
Ar 20.53786 20.73753 11.48169
Ar 17.17892 17.77097 16.93853
Ar 18.70482 20.63667 21.07887
Ar 19.56541 16.56062 20.05612
Ar 19.63121 20.07419 17.78989
256
frame 80
Ar 1.46389 0.05580 22.33310
Ar 22.00935 3.78045 22.73794
Ar 2.45083 1.26806 2.67558
Ar 2.64707 4.48513 0.85734
Ar 22.68046 0.40651 5.32163
Ar 0.53374 3.47201 9.69482
Ar 2.38115 0.50904 8.36997
Ar 3.45555 3.36492 5.44640
Ar 0.60762 0.05348 11.71738
Ar 0.17095 1.67159 14.89163
Ar 2.45179 21.48147 14.11523
Ar 3.02763 2.64540 12.69072
Ar 0.21332 22.25375 17.89903
Ar 2.43881 3.47514 19.97311
Ar 3.76459 21.12733 19.38533
Ar 3.26775 0.91141 16.58458
Ar 0.63886 6.85261 21.85851
Ar 0.18766 9.01229 2.44813
Ar 4.04504 8.01478 0.00491
Ar 5.56390 11.08227 21.22857
Ar 0.88396 5.69568 4.77569
Ar 0.92959 7.63607 9.92641
Ar 4.35891 5.90650 7.45457
Ar 2.22846 8.91476 5.47719
Ar 0.54025 4.86498 13.25025
Ar 21.04272 7.62207 14.50275
Ar 3.79256 5.43903 15.40836
Ar 1.46531 8.30316 13.89210
Ar 0.51066 4.62236 17.08324
Ar 0.54157 8.06844 18.21169
Ar 4.08169 6.88051 19.01296
Ar 2.74797 10.66849 16.86153
Ar 2.14280 11.64886 0.09766
Ar 2.40312 13.77008 2.70012
Ar 3.99604 10.33817 2.68128
Ar 3.37486 14.30313 21.15741
Ar 0.41427 11.94471 4.63808
Ar 21.81477 13.42363 8.59323
Ar 2.00570 11.80677 9.08746
Ar 1.25256 14.96860 6.77963
Ar 21.39456 9.72874 11.83162
Ar 22.68293 15.14357 14.50059
Ar 1.15033 12.22290 12.86709
Ar 1.68440 15.69737 10.28866
Ar 22.24413 10.85289 15.84152
Ar 22.62348 14.77464 20.65383
Ar 0.77485 11.49143 19.28669
Ar 2.67677 14.94471 17.14149
Ar 0.37211 16.40303 0.66067
Ar 22.09652 19.57129 3.68258
Ar 2.50656 17.09448 3.65742
Ar 2.17952 19.50475 0.10036
Ar 20.78636 17.17123 7.97350
Ar 21.53261 20.34817 7.28958
Ar 1.92751 19.13739 7.76541
Ar 2.46798 20.61665 5.04485
Ar 21.18893 17.09555 11.32871
Ar 22.59267 19.66985 14.37255
Ar 3.00100 16.92257 13.93369
Ar 1.21732 19.14446 11.29342
Ar 22.40866 16.78542 17.72673
Ar 22.07181 19.96787 20.31824
Ar 2.24189 17.45216 19.57792
Ar 2.65417 19.16411 16.53854
Ar 5.35383 0.24263 22.26212
Ar 6.61772 2.43867 2.10875
Ar 10.08641 1.07495 3.53869
Ar 8.45244 1.59042 21.09256
Ar 5.57721 0.35891 5.42693
Ar 5.16570 2.62142 8.60282
Ar 7.85068 0.35656 8.30940
Ar 6.99480 4.05582 5.31209
Ar 4.60503 0.07107 11.14919
Ar 6.10984 2.13190 14.61326
Ar 8.40193 22.32718 13.37242
Ar 7.82432 2.45269 11.22470
Ar 6.28844 21.34631 16.53279
Ar 5.67153 1.79254 18.92039
Ar 7.79137 21.07076 19.70449
Ar 8.75279 1.13907 17.48702
Ar 5.78765 4.09541 21.38358
Ar 7.15540 8.68874 1.87293
Ar 8.32196 7.34139 4.73274
Ar 9.74991 11.23080 21.17860
Ar 4.43047 6.48161 3.73073
Ar 4.22680 8.57623 11.02257
Ar 7.68878 6.23681 10.33632
Ar 6.24708 9.00581 7.89043
Ar 4.50816 4.91518 10.73173
Ar 5.32313 8.68630 14.92467
Ar 7.45328 5.24365 13.99725
Ar 8.34645 9.41373 13.20138
Ar 7.18817 4.88917 17.43459
Ar 8.05164 7.84100 20.24984
Ar 9.54514 4.76514 20.34609
Ar 8.84008 7.76305 16.28231
Ar 7.32558 12.75515 1.40391
Ar 5.36015 14.44684 4.15101
Ar 7.67749 10.68059 4.77474
Ar 11.12120 13.92075 1.83884
Ar 4.33444 11.51608 6.43004
Ar 5.60079 14.88368 7.87434
Ar 8.57062 12.07741 8.73958
Ar 8.78501 14.19129 4.79197
Ar 5.71311 12.26957 10.85243
Ar 4.76087 13.12372 14.76288
Ar 8.80726 13.44700 12.81964
Ar 8.86874 15.50742 9.92251
Ar 6.08223 14.34108 18.01159
Ar 6.86295 15.10688 21.34548
Ar 9.56139 12.73045 16.51598
Ar 8.93213 16.23076 17.76193
Ar 5.35015 16.66897 1.30154
Ar 4.97993 20.67156 2.56754
Ar 8.85437 16.56751 2.35917
Ar 8.42884 21.49025 0.61783
Ar 5.82127 17.98413 5.29927
Ar 6.35648 19.93427 9.41333
Ar 8.89476 17.30179 7.06282
Ar 8.27014 20.54891 4.86533
Ar 5.37711 15.91024 11.58186
Ar 5.61706 19.40601 13.41727
Ar 7.73931 16.51811 14.21423
Ar 9.09106 19.19107 11.67692
Ar 5.93288 17.99684 18.34608
Ar 6.05310 19.26710 22.09850
Ar 9.03164 17.89071 21.41785
Ar 8.92612 19.30883 15.66596
Ar 11.92822 0.33011 0.22216
Ar 10.78451 4.14849 4.23091
Ar 14.52382 1.15453 3.33341
Ar 13.53528 3.15736 0.50738
Ar 10.94071 0.16976 7.37224
Ar 10.33183 3.67635 8.82765
Ar 13.31655 2.07583 6.49690
Ar 14.19158 4.75192 3.94301
Ar 10.86137 22.53165 10.88442
Ar 10.89934 2.11253 14.23598
Ar 14.10066 0.08550 13.74201
Ar 13.37195 2.67284 11.32893
Ar 11.57056 22.28458 16.94847
Ar 11.79554 1.61391 19.84029
Ar 14.45221 21.57308 19.57463
Ar 14.53707 2.30869 16.79861
Ar 8.49999 5.37806 1.36395
Ar 10.67730 10.38572 2.69128
Ar 11.90526 7.34203 4.65724
Ar 12.85078 6.79252 1.43593
Ar 10.25768 7.53979 8.20224
Ar 10.94156 10.17278 10.81596
Ar 13.46660 5.26273 8.81623
Ar 13.80389 8.42831 7.72368
Ar 11.21821 6.00542 12.20111
Ar 12.12967 7.87764 14.96220
Ar 14.23402 4.87052 14.44689
Ar 14.76669 6.79221 11.77443
Ar 11.66741 4.42023 16.97627
Ar 11.62183 7.75287 19.08036
Ar 13.34016 4.71098 19.87459
Ar 15.05818 6.99062 17.26090
Ar 13.67228 10.56827 0.51713
Ar 13.20015 13.78778 4.47839
Ar 14.35375 10.44102 4.09433
Ar 14.04608 14.19330 21.01150
Ar 10.75678 10.76582 6.13886
Ar 11.85504 14.73755 7.47035
Ar 14.71092 10.14174 10.47533
Ar 14.35164 12.23695 7.58826
Ar 12.46874 13.76187 12.37687
Ar 11.13649 16.14373 14.70556
Ar 15.18407 9.34391 13.94473
Ar 14.90955 14.74804 9.75932
Ar 13.14336 12.16987 15.45715
Ar 10.39185 14.34093 20.99481
Ar 12.49001 11.01577 18.48644
Ar 12.77413 14.69405 17.77918
Ar 12.25464 16.87805 22.78476
Ar 11.57970 20.66953 3.24738
Ar 15.48857 17.08872 4.24673
Ar 14.56182 20.14013 0.22559
Ar 11.87855 17.10386 4.61528
Ar 11.65203 19.63486 8.46481
Ar 14.98134 17.97220 8.25548
Ar 14.19811 21.08067 5.77185
Ar 12.78472 16.99777 10.86321
Ar 12.23941 19.53601 13.45333
Ar 15.16230 16.96815 14.02647
Ar 14.18213 22.33021 9.35311
Ar 12.19355 18.35941 17.32832
Ar 11.21154 20.76640 20.55994
Ar 15.20457 17.86186 19.70667
Ar 14.87136 20.51929 15.93595
Ar 16.88341 0.38635 0.58926
Ar 17.47108 3.69521 2.40483
Ar 20.20046 1.41188 1.82961
Ar 18.10504 4.71745 21.24917
Ar 18.97885 0.34956 4.93745
Ar 17.58231 2.82754 7.51774
Ar 21.36751 0.54614 8.66443
Ar 19.68116 4.07888 5.16379
Ar 17.31297 22.63854 11.14591
Ar 17.00783 2.29299 14.23320
Ar 20.11984 22.34508 14.69954
Ar 20.40472 2.02933 12.07025
Ar 17.56337 22.70070 16.86016
Ar 15.29172 2.14820 20.53112
Ar 20.50080 0.95869 21.18537
Ar 20.81067 1.69547 17.88920
Ar 16.23004 6.86583 1.38370
Ar 17.58460 9.85549 2.54536
Ar 19.78211 6.74965 1.40630
Ar 18.68347 8.28353 21.33919
Ar 16.24529 7.58233 4.73832
Ar 18.06060 6.65864 7.55673
Ar 21.62669 5.93879 7.45784
Ar 20.75020 7.77593 4.91761
Ar 17.24141 3.65848 10.79298
Ar 18.10528 6.27988 13.71368
Ar 20.31108 4.07177 15.50474
Ar 20.77144 5.47581 10.80190
Ar 17.24574 4.25720 17.61838
Ar 15.01089 8.49615 20.22058
Ar 21.00311 5.24000 19.42873
Ar 19.12109 7.74980 17.57289
Ar 16.90559 11.57592 20.45180
Ar 15.80454 13.25603 2.40893
Ar 21.44971 12.55990 1.73870
Ar 18.71396 14.75961 0.26379
Ar 17.35216 10.46627 6.57445
Ar 17.97640 12.00771 10.41778
Ar 20.94623 9.29636 7.90640
Ar 19.58762 12.33464 4.61261
Ar 18.22881 8.09365 10.66282
Ar 17.45023 14.10375 14.54716
Ar 18.44685 10.58931 14.06860
Ar 20.69896 13.29787 11.90793
Ar 15.86628 10.83800 17.24591
Ar 16.94189 14.64979 18.39733
Ar 20.34740 11.80180 20.68221
Ar 20.70735 13.65666 17.48301
Ar 15.62685 16.81780 0.41582
Ar 16.64363 20.80056 2.99017
Ar 20.50864 16.46205 3.76373
Ar 19.56310 18.41512 1.21352
Ar 17.00050 14.73577 7.33228
Ar 17.00735 22.17345 7.79790
Ar 18.46167 19.14725 9.31213
Ar 18.76048 19.37079 5.48348
Ar 17.44538 16.48411 11.19522
Ar 17.67695 19.76577 13.75207
Ar 19.85304 17.09859 14.88169
Ar 20.57409 20.70363 11.48257
Ar 17.23131 17.72793 16.99373
Ar 18.64895 20.75276 21.13270
Ar 19.55749 16.47909 20.00445
Ar 19.63277 20.03475 17.66251
256
frame 81
Ar 1.44279 0.08312 22.23636
Ar 22.01840 3.75289 22.73032
Ar 2.41595 1.27172 2.73487
Ar 2.57602 4.55603 0.77166
Ar 22.62483 0.29561 5.29866
Ar 0.62778 3.47605 9.63867
Ar 2.36884 0.38782 8.42586
Ar 3.41056 3.30175 5.53984
Ar 0.54911 0.05622 11.77441
Ar 0.15837 1.75988 14.84414
Ar 2.57530 21.42969 14.05083
Ar 3.03594 2.68421 12.68497
Ar 0.34312 22.18733 17.86599
Ar 2.33308 3.52812 19.95559
Ar 3.78338 21.16502 19.46327
Ar 3.27052 0.88343 16.53093
Ar 0.58817 6.89891 21.81583
Ar 0.23366 8.92407 2.40419
Ar 4.18305 7.89537 0.00690
Ar 5.52790 11.15343 21.25193
Ar 0.88098 5.75772 4.78001
Ar 0.97019 7.76698 9.99968
Ar 4.38403 5.93179 7.36778
Ar 2.20173 8.84527 5.53843
Ar 0.49128 4.83737 13.27859
Ar 20.97779 7.56678 14.48966
Ar 3.71319 5.44812 15.40525
Ar 1.50209 8.33611 13.89282
Ar 0.48804 4.52775 17.03418
Ar 0.60116 8.04626 18.20976
Ar 3.99307 6.86831 19.05557
Ar 2.71372 10.60514 17.00263
Ar 2.20761 11.69804 0.11847
Ar 2.36944 13.78989 2.71870
Ar 3.96515 10.32321 2.83029
Ar 3.33753 14.30998 20.99902
Ar 0.51747 11.90616 4.67284
Ar 21.77614 13.45012 8.59972
Ar 2.01007 11.70890 9.17190
Ar 1.30523 14.99071 6.81181
Ar 21.46618 9.76828 11.86414
Ar 22.72782 15.18309 14.56211
Ar 1.03389 12.29463 12.80883
Ar 1.64797 15.62694 10.21912
Ar 22.17384 10.84850 15.78597
Ar 22.64599 14.77269 20.62663
Ar 0.69990 11.47854 19.29792
Ar 2.70198 14.83166 17.12467
Ar 0.37751 16.46747 0.75687
Ar 22.09369 19.56262 3.71480
Ar 2.51067 17.08142 3.76149
Ar 2.15756 19.56065 0.04958
Ar 20.71822 17.12400 8.03859
Ar 21.50523 20.37032 7.29477
Ar 2.00300 19.10414 7.82183
Ar 2.51095 20.80037 4.93866
Ar 21.13017 17.10059 11.40692
Ar 22.61443 19.62763 14.47689
Ar 3.09195 16.87740 13.86230
Ar 1.19369 19.15218 11.16494
Ar 22.46770 16.79506 17.72915
Ar 22.18059 19.90638 20.21884
Ar 2.27541 17.49179 19.58168
Ar 2.72400 19.34369 16.58027
Ar 5.39880 0.21757 22.19787
Ar 6.55752 2.38249 2.18556
Ar 10.12494 1.08184 3.66140
Ar 8.37651 1.72140 21.00636
Ar 5.58469 0.48226 5.39960
Ar 5.16073 2.44251 8.62590
Ar 7.84770 0.43590 8.24371
Ar 6.90807 4.06488 5.32050
Ar 4.71226 22.79490 11.11293
Ar 6.10280 2.10830 14.53789
Ar 8.38275 22.26840 13.35097
Ar 7.71140 2.50196 11.33831
Ar 6.30525 21.27160 16.42225
Ar 5.75848 1.86478 18.95058
Ar 7.78022 21.15449 19.82625
Ar 8.80190 1.02660 17.41715
Ar 5.83553 4.07826 21.41843
Ar 7.17258 8.80600 1.93594
Ar 8.33060 7.32089 4.71165
Ar 9.63711 11.16236 21.19761
Ar 4.41268 6.47763 3.69902
Ar 4.21776 8.60864 11.00145
Ar 7.75502 6.16580 10.33391
Ar 6.29040 8.96503 7.92917
Ar 4.51510 4.92908 10.82298
Ar 5.16498 8.71865 14.96108
Ar 7.53082 5.17886 13.92364
Ar 8.25751 9.47056 13.30224
Ar 7.25250 4.87528 17.35229
Ar 8.01380 7.93598 20.30029
Ar 9.51125 4.79073 20.26558
Ar 8.96487 7.86832 16.26833
Ar 7.32366 12.77606 1.35217
Ar 5.42441 14.41639 4.21998
Ar 7.64658 10.73613 4.79353
Ar 11.20206 13.81870 1.86355
Ar 4.26133 11.57762 6.36608
Ar 5.61224 14.85954 7.80769
Ar 8.61153 11.99617 8.59050
Ar 8.73623 14.06067 4.69432
Ar 5.67467 12.26918 10.76420
Ar 4.83174 13.20663 14.65596
Ar 8.74340 13.39752 12.72268
Ar 8.76857 15.42815 9.91267
Ar 6.06996 14.46801 17.94001
Ar 6.85801 15.03499 21.34193
Ar 9.58039 12.73208 16.41816
Ar 9.05404 16.25438 17.78985
Ar 5.31743 16.56664 1.33711
Ar 5.03979 20.81462 2.53025
Ar 8.77875 16.54090 2.33298
Ar 8.53328 21.49237 0.62883
Ar 5.77127 18.04689 5.36060
Ar 6.38526 19.89009 9.50276
Ar 8.84393 17.29009 7.12887
Ar 8.20593 20.68732 4.88408
Ar 5.28676 15.84591 11.65669
Ar 5.53460 19.55113 13.49668
Ar 7.60102 16.40906 14.24609
Ar 9.15526 19.20940 11.59870
Ar 5.86530 17.96257 18.30830
Ar 6.02816 19.30277 22.05215
Ar 9.03473 17.89192 21.46580
Ar 8.85473 19.32593 15.63382
Ar 11.84284 0.31054 0.24310
Ar 10.83305 4.14891 4.34076
Ar 14.42476 1.13336 3.38431
Ar 13.57393 3.20376 0.40763
Ar 10.96779 0.09151 7.44182
Ar 10.36805 3.69429 8.86024
Ar 13.28095 2.11002 6.55789
Ar 14.21019 4.77375 3.90023
Ar 10.80749 22.43805 10.81730
Ar 10.89529 2.10350 14.21482
Ar 14.08407 0.09502 13.77899
Ar 13.29179 2.70104 11.22171
Ar 11.64227 22.27896 16.99538
Ar 11.75285 1.46409 19.80741
Ar 14.43389 21.52694 19.55633
Ar 14.51149 2.30361 16.86024
Ar 8.52491 5.41083 1.39889
Ar 10.68939 10.35128 2.62358
Ar 11.83481 7.43521 4.67759
Ar 12.83231 6.73785 1.40572
Ar 10.10863 7.54892 8.23657
Ar 10.97421 10.26791 10.87292
Ar 13.35703 5.29247 8.88221
Ar 13.87126 8.40767 7.72843
Ar 11.28998 5.99096 12.15113
Ar 12.02212 7.82308 15.01894
Ar 14.21624 4.86340 14.41565
Ar 14.79356 6.76891 11.85080
Ar 11.66565 4.50811 16.96939
Ar 11.66908 7.85101 19.11463
Ar 13.34211 4.83106 19.91347
Ar 15.05524 7.01584 17.22641
Ar 13.65846 10.49759 0.52191
Ar 13.22169 13.85560 4.47690
Ar 14.47865 10.39150 4.20346
Ar 13.99649 14.18252 20.91148
Ar 10.72550 10.73853 6.22429
Ar 11.81432 14.79914 7.45543
Ar 14.66783 10.19542 10.55623
Ar 14.34318 12.11132 7.52616
Ar 12.41936 13.85518 12.31636
Ar 11.15182 16.13610 14.75767
Ar 15.08301 9.39292 13.92961
Ar 14.99786 14.70684 9.80164
Ar 13.22973 12.11651 15.45783
Ar 10.40757 14.36423 20.92686
Ar 12.44399 11.06572 18.57355
Ar 12.87003 14.71549 17.74094
Ar 12.27183 16.94705 0.03374
Ar 11.47012 20.72551 3.22992
Ar 15.50367 17.04888 4.33849
Ar 14.57722 20.12424 0.06848
Ar 11.95617 17.09775 4.59667
Ar 11.65958 19.65841 8.44328
Ar 14.96547 18.00829 8.27262
Ar 14.22042 21.16512 5.77262
Ar 12.84695 16.99709 10.87249
Ar 12.37407 19.55679 13.46308
Ar 15.30437 17.02420 14.01576
Ar 13.99532 22.37126 9.32801
Ar 12.17548 18.35209 17.34592
Ar 11.34626 20.76892 20.56355
Ar 15.23130 17.84490 19.62123
Ar 14.97761 20.43078 15.96445
Ar 16.94713 0.27748 0.46279
Ar 17.44447 3.74861 2.31652
Ar 20.25507 1.38219 1.94300
Ar 18.13104 4.74134 21.25307
Ar 18.99832 0.25041 4.89578
Ar 17.62919 2.85200 7.45862
Ar 21.40290 0.51658 8.65013
Ar 19.59669 4.09486 5.17148
Ar 17.26198 22.66570 11.08561
Ar 17.06229 2.26711 14.17681
Ar 20.10939 22.33975 14.73555
Ar 20.47983 2.06254 11.99824
Ar 17.48073 22.62068 16.88351
Ar 15.38347 2.06346 20.48077
Ar 20.52477 0.93988 21.17626
Ar 20.82166 1.69381 17.94538
Ar 16.24312 6.93185 1.41702
Ar 17.59668 9.94872 2.57468
Ar 19.71769 6.76491 1.32131
Ar 18.70856 8.24493 21.39557
Ar 16.19244 7.55241 4.76691
Ar 18.10032 6.70084 7.61862
Ar 21.80076 5.81598 7.61302
Ar 20.77458 7.80279 4.91370
Ar 17.16688 3.62746 10.71195
Ar 18.15271 6.10589 13.68516
Ar 20.26370 4.04772 15.45758
Ar 20.71162 5.48309 10.81882
Ar 17.40161 4.30674 17.66186
Ar 14.89484 8.60785 20.24080
Ar 21.03950 5.19627 19.46855
Ar 19.12237 7.81447 17.56725
Ar 16.80941 11.60440 20.44400
Ar 15.80894 13.35622 2.49026
Ar 21.52896 12.56173 1.66116
Ar 18.72371 14.70340 0.22699
Ar 17.38936 10.48706 6.71496
Ar 17.96946 12.05175 10.42322
Ar 20.92612 9.35459 7.99204
Ar 19.53058 12.31853 4.58793
Ar 18.26090 8.00531 10.60247
Ar 17.41218 14.11286 14.66889
Ar 18.44624 10.48236 14.03698
Ar 20.65908 13.36173 11.93292
Ar 15.90346 10.72072 17.27078
Ar 17.00281 14.64820 18.32622
Ar 20.30218 11.84011 20.61216
Ar 20.88053 13.67444 17.58034
Ar 15.55428 16.71481 0.35350
Ar 16.61879 20.83590 2.96760
Ar 20.49104 16.45368 3.78783
Ar 19.61121 18.52087 1.18296
Ar 17.06736 14.71089 7.36778
Ar 16.91467 22.12812 7.80065
Ar 18.37901 19.09038 9.39281
Ar 18.67729 19.37335 5.49219
Ar 17.50358 16.52853 11.15458
Ar 17.59392 19.78495 13.76806
Ar 19.90084 17.11210 14.81166
Ar 20.62106 20.68450 11.48859
Ar 17.26590 17.69653 17.02203
Ar 18.56867 20.85693 21.19067
Ar 19.54391 16.41901 19.95224
Ar 19.67067 19.99654 17.53051
256
frame 82
Ar 1.41478 0.13163 22.12403
Ar 22.02361 3.72820 22.72608
Ar 2.38696 1.26942 2.79154
Ar 2.52573 4.61912 0.69997
Ar 22.57471 0.20190 5.26171
Ar 0.74560 3.46545 9.59589
Ar 2.33479 0.24927 8.46576
Ar 3.33840 3.20935 5.61672
Ar 0.49468 0.06654 11.79699
Ar 0.14749 1.81994 14.80694
Ar 2.73729 21.41910 13.94550
Ar 3.03400 2.66873 12.71077
Ar 0.50908 22.09185 17.81409
Ar 2.22719 3.57473 19.94484
Ar 3.80381 21.20613 19.54790
Ar 3.28300 0.87495 16.49036
Ar 0.53636 6.96708 21.76534
Ar 0.28780 8.83754 2.34384
Ar 4.31748 7.77254 0.00268
Ar 5.49637 11.22360 21.27432
Ar 0.88550 5.79413 4.74921
Ar 1.00511 7.88661 10.06682
Ar 4.41140 5.99328 7.29939
Ar 2.17228 8.77285 5.62585
Ar 0.42277 4.84555 13.30059
Ar 20.94661 7.51661 14.50224
Ar 3.63517 5.44467 15.40047
Ar 1.56227 8.37761 13.89182
Ar 0.50256 4.43961 16.97315
Ar 0.64256 8.00747 18.20304
Ar 3.91126 6.85356 19.09888
Ar 2.76047 10.52978 17.06988
Ar 2.24737 11.70483 0.10650
Ar 2.34936 13.84504 2.71881
Ar 3.94634 10.31308 2.98647
Ar 3.31368 14.32845 20.82999
Ar 0.59302 11.83974 4.75532
Ar 21.69377 13.45688 8.61358
Ar 2.01944 11.60273 9.26448
Ar 1.39323 15.03193 6.79630
Ar 21.52763 9.81670 11.87783
Ar 22.78781 15.21152 14.61496
Ar 0.95348 12.35827 12.75011
Ar 1.61485 15.55296 10.17212
Ar 22.09161 10.83934 15.72198
Ar 22.66516 14.75360 20.59907
Ar 0.58635 11.49745 19.37763
Ar 2.70530 14.71453 17.10618
Ar 0.37882 16.53695 0.87376
Ar 22.10169 19.56920 3.74379
Ar 2.51198 17.09580 3.87681
Ar 2.14920 19.60227 0.00369
Ar 20.67208 17.02110 8.05752
Ar 21.48760 20.36425 7.28889
Ar 2.08801 19.04250 7.88758
Ar 2.56120 21.00123 4.81236
Ar 21.07519 17.09192 11.51313
Ar 22.59429 19.55927 14.59453
Ar 3.13821 16.84719 13.82935
Ar 1.18161 19.17221 11.05719
Ar 22.48690 16.83407 17.69460
Ar 22.28608 19.82409 20.14416
Ar 2.35226 17.55044 19.63386
Ar 2.80086 19.48946 16.65561
Ar 5.42440 0.18902 22.14510
Ar 6.49287 2.31631 2.25326
Ar 10.13599 1.03012 3.77072
Ar 8.34402 1.81140 20.96631
Ar 5.58950 0.59460 5.36527
Ar 5.15179 2.28115 8.62397
Ar 7.81008 0.49730 8.19647
Ar 6.83620 4.07030 5.34088
Ar 4.83192 22.67569 11.09527
Ar 6.08841 2.06224 14.48316
Ar 8.34923 22.21021 13.34596
Ar 7.60534 2.55191 11.44532
Ar 6.27492 21.24219 16.33989
Ar 5.79679 1.90773 18.92178
Ar 7.77928 21.24982 19.91839
Ar 8.81529 0.94694 17.33718
Ar 5.87170 4.11247 21.49451
Ar 7.18079 8.93593 1.94670
Ar 8.34299 7.27188 4.72695
Ar 9.51279 11.04309 21.22769
Ar 4.40354 6.47668 3.65638
Ar 4.22527 8.65070 10.99033
Ar 7.81826 6.09518 10.34073
Ar 6.34648 8.92546 7.96816
Ar 4.52415 5.00038 10.92167
Ar 5.00715 8.75247 14.99788
Ar 7.62044 5.14378 13.82551
Ar 8.17042 9.53914 13.37487
Ar 7.30717 4.85192 17.29408
Ar 7.95840 8.04267 20.35060
Ar 9.50461 4.83232 20.17882
Ar 9.04675 7.96935 16.29979
Ar 7.32598 12.79221 1.30806
Ar 5.47143 14.38728 4.29094
Ar 7.57249 10.80806 4.81701
Ar 11.25784 13.71841 1.83976
Ar 4.19729 11.65781 6.29891
Ar 5.62473 14.83697 7.74987
Ar 8.63287 11.92648 8.45217
Ar 8.73698 13.92414 4.63047
Ar 5.62896 12.26319 10.67687
Ar 4.90611 13.28620 14.53579
Ar 8.67978 13.32261 12.63897
Ar 8.67082 15.34614 9.92587
Ar 6.05901 14.56345 17.86144
Ar 6.85744 14.96165 21.33738
Ar 9.59974 12.73615 16.32116
Ar 9.19752 16.28392 17.82698
Ar 5.26478 16.46164 1.38074
Ar 5.11373 20.95718 2.47926
Ar 8.70696 16.54010 2.28895
Ar 8.64512 21.49650 0.65208
Ar 5.70826 18.10676 5.41819
Ar 6.40457 19.84290 9.58062
Ar 8.80069 17.30065 7.16119
Ar 8.14613 20.83067 4.90586
Ar 5.23002 15.76387 11.67604
Ar 5.46709 19.68212 13.55105
Ar 7.44795 16.29267 14.28587
Ar 9.22824 19.20656 11.52562
Ar 5.79355 17.94918 18.27507
Ar 5.94592 19.33673 22.01702
Ar 9.06816 17.88781 21.50369
Ar 8.83664 19.33260 15.59912
Ar 11.74851 0.26595 0.29742
Ar 10.86784 4.20146 4.46938
Ar 14.33016 1.10339 3.41574
Ar 13.62438 3.28756 0.32734
Ar 10.98714 22.79618 7.46963
Ar 10.37275 3.69213 8.89017
Ar 13.30928 2.20913 6.61084
Ar 14.25420 4.77416 3.86954
Ar 10.74921 22.35226 10.78019
Ar 10.88956 2.09788 14.19050
Ar 14.06064 0.12052 13.79680
Ar 13.21248 2.72055 11.12796
Ar 11.76849 22.22657 17.00958
Ar 11.71675 1.34366 19.76481
Ar 14.45867 21.49057 19.51289
Ar 14.47714 2.27443 16.93310
Ar 8.55454 5.44150 1.42998
Ar 10.69385 10.30725 2.55087
Ar 11.78307 7.56065 4.72244
Ar 12.77700 6.69590 1.34104
Ar 9.97806 7.56806 8.25361
Ar 11.01006 10.36193 10.93020
Ar 13.27096 5.31288 8.93875
Ar 13.94068 8.41020 7.69708
Ar 11.34275 5.96179 12.08235
Ar 11.96365 7.78038 15.07436
Ar 14.19303 4.81573 14.41772
Ar 14.84316 6.75373 11.85294
Ar 11.63037 4.60048 16.94513
Ar 11.68198 7.91515 19.14250
Ar 13.36006 4.96697 19.97469
Ar 15.04883 7.03590 17.16615
Ar 13.65245 10.43083 0.52030
Ar 13.24592 13.90943 4.52291
Ar 14.56431 10.36258 4.31486
Ar 13.96793 14.16042 20.83922
Ar 10.75142 10.70469 6.30983
Ar 11.75584 14.86877 7.47356
Ar 14.63500 10.26892 10.64552
Ar 14.32027 11.97951 7.45434
Ar 12.37026 13.92237 12.25176
Ar 11.17098 16.12685 14.79930
Ar 14.98691 9.45498 13.94784
Ar 15.03878 14.61541 9.89687
Ar 13.31179 12.06975 15.40836
Ar 10.43207 14.43863 20.84891
Ar 12.39661 11.14562 18.69157
Ar 12.95639 14.75719 17.69082
Ar 12.24345 17.02672 0.10750
Ar 11.37623 20.76084 3.20379
Ar 15.53429 17.01030 4.43043
Ar 14.58082 20.11752 22.73404
Ar 12.00970 17.11512 4.57481
Ar 11.66215 19.65595 8.42314
Ar 14.96432 18.05519 8.26779
Ar 14.22570 21.23731 5.77146
Ar 12.86489 17.03955 10.90140
Ar 12.50387 19.58270 13.47822
Ar 15.42212 17.07573 14.00540
Ar 13.78615 22.41520 9.32993
Ar 12.16137 18.36064 17.37440
Ar 11.44038 20.73643 20.56943
Ar 15.22351 17.82836 19.57718
Ar 15.05886 20.31394 16.02036
Ar 17.00170 0.20980 0.33077
Ar 17.41275 3.78602 2.22159
Ar 20.32262 1.35418 2.04548
Ar 18.13262 4.74614 21.27862
Ar 19.00198 0.14415 4.87984
Ar 17.64073 2.84838 7.41046
Ar 21.42073 0.54424 8.66884
Ar 19.55899 4.13609 5.13396
Ar 17.22176 22.69894 11.07308
Ar 17.12686 2.24594 14.11663
Ar 20.11882 22.34152 14.75397
Ar 20.53972 2.10057 11.93067
Ar 17.37716 22.57316 16.93582
Ar 15.50545 1.96481 20.41814
Ar 20.54900 0.91315 21.19547
Ar 20.79554 1.72603 17.97275
Ar 16.25126 6.99530 1.40516
Ar 17.63320 10.05997 2.58936
Ar 19.69703 6.74996 1.28918
Ar 18.71611 8.24794 21.40092
Ar 16.15373 7.49504 4.83036
Ar 18.14278 6.71225 7.63321
Ar 21.96759 5.68998 7.76703
Ar 20.76987 7.83777 4.87885
Ar 17.08485 3.61438 10.66528
Ar 18.12603 5.91663 13.63852
Ar 20.20753 4.02070 15.39462
Ar 20.63713 5.49453 10.86536
Ar 17.56484 4.35210 17.70730
Ar 14.79008 8.72141 20.29824
Ar 21.07220 5.16079 19.51278
Ar 19.11516 7.88150 17.56492
Ar 16.70826 11.64693 20.46944
Ar 15.85814 13.45452 2.53434
Ar 21.61384 12.56841 1.55843
Ar 18.73554 14.64178 0.19512
Ar 17.43015 10.49428 6.86712
Ar 17.93011 12.07950 10.40628
Ar 20.90542 9.43552 8.10298
Ar 19.47667 12.31548 4.57170
Ar 18.28275 7.96529 10.59780
Ar 17.37994 14.11743 14.78620
Ar 18.46117 10.37639 14.00604
Ar 20.62423 13.45359 11.99146
Ar 15.95485 10.59499 17.27679
Ar 17.04407 14.59378 18.26752
Ar 20.25256 11.87609 20.56190
Ar 21.03668 13.69114 17.66507
Ar 15.54022 16.59777 0.30475
Ar 16.59213 20.85053 2.96423
Ar 20.47410 16.40617 3.83360
Ar 19.64680 18.63961 1.12800
Ar 17.19855 14.68859 7.33197
Ar 16.87766 22.06864 7.74672
Ar 18.27526 19.11239 9.43707
Ar 18.58142 19.36242 5.50256
Ar 17.56895 16.52570 11.16680
Ar 17.53043 19.81127 13.76542
Ar 19.93603 17.13044 14.74148
Ar 20.66643 20.67667 11.49878
Ar 17.30014 17.68134 17.00199
Ar 18.48338 20.92761 21.22890
Ar 19.53105 16.38304 19.90296
Ar 19.74962 19.96388 17.40566
256
frame 83
Ar 1.38292 0.20038 22.00203
Ar 22.02320 3.70835 22.72725
Ar 2.36155 1.26562 2.83262
Ar 2.49821 4.67187 0.64605
Ar 22.52679 0.13491 5.21353
Ar 0.89938 3.41868 9.59051
Ar 2.28202 0.09346 8.49253
Ar 3.23434 3.11183 5.68824
Ar 0.46305 0.07696 11.79306
Ar 0.13637 1.82859 14.78203
Ar 2.86101 21.45926 13.81076
Ar 3.02109 2.60172 12.75727
Ar 0.66966 21.99856 17.74809
Ar 2.12503 3.61300 19.94401
Ar 3.82407 21.25019 19.63391
Ar 3.30996 0.88878 16.45955
Ar 0.48388 7.05358 21.71142
Ar 0.35077 8.75509 2.27241
Ar 4.44844 7.65261 22.81724
Ar 5.47087 11.28914 21.29346
Ar 0.88792 5.79133 4.68681
Ar 1.02923 7.98751 10.12108
Ar 4.43511 6.07315 7.25220
Ar 2.14788 8.70974 5.74511
Ar 0.34625 4.89394 13.30549
Ar 20.94429 7.47343 14.52750
Ar 3.56294 5.42955 15.39318
Ar 1.62681 8.42308 13.88886
Ar 0.53827 4.37218 16.91586
Ar 0.65692 7.95330 18.18870
Ar 3.84236 6.83494 19.14323
Ar 2.84874 10.46425 17.10059
Ar 2.26991 11.67766 0.07111
Ar 2.34055 13.92295 2.70797
Ar 3.93521 10.30644 3.12952
Ar 3.30810 14.34646 20.65819
Ar 0.64203 11.75739 4.86626
Ar 21.59184 13.44804 8.62491
Ar 2.02899 11.49297 9.35702
Ar 1.49818 15.07632 6.74182
Ar 21.56694 9.86877 11.88132
Ar 0.03581 15.22713 14.65386
Ar 0.92044 12.41683 12.69576
Ar 1.58402 15.47989 10.15750
Ar 22.00656 10.82587 15.65480
Ar 22.68163 14.73975 20.59461
Ar 0.47984 11.51990 19.48494
Ar 2.67982 14.59746 17.08687
Ar 0.37283 16.60464 0.99637
Ar 22.11843 19.58425 3.76867
Ar 2.51058 17.13895 4.00088
Ar 2.15377 19.63330 22.78927
Ar 20.63647 16.88969 8.04752
Ar 21.47540 20.31967 7.28213
Ar 2.19127 18.97005 7.90455
Ar 2.61513 21.19002 4.70004
Ar 21.04179 17.07648 11.61466
Ar 22.56641 19.48522 14.71412
Ar 3.12384 16.84885 13.85864
Ar 1.16750 19.20158 11.00312
Ar 22.48613 16.91071 17.64202
Ar 22.37945 19.72486 20.09395
Ar 2.45416 17.61985 19.71438
Ar 2.88177 19.59871 16.74488
Ar 5.43428 0.16698 22.11260
Ar 6.42728 2.24477 2.30441
Ar 10.12241 0.96696 3.87595
Ar 8.37271 1.85302 20.98065
Ar 5.59410 0.68303 5.32402
Ar 5.09879 2.18740 8.62158
Ar 7.79035 0.52220 8.16056
Ar 6.78090 4.07325 5.37234
Ar 4.95475 22.55016 11.10231
Ar 6.06472 1.99786 14.46442
Ar 8.30408 22.15721 13.35318
Ar 7.51515 2.59015 11.51750
Ar 6.20282 21.27614 16.32151
Ar 5.77425 1.92980 18.83268
Ar 7.79379 21.35064 19.97305
Ar 8.80418 0.89079 17.24723
Ar 5.88681 4.19294 21.60243
Ar 7.18543 9.06760 1.91379
Ar 8.34508 7.21196 4.76649
Ar 9.39437 10.92729 21.27098
Ar 4.40204 6.47708 3.60369
Ar 4.25646 8.70473 10.99176
Ar 7.86591 6.02002 10.36148
Ar 6.41145 8.89464 8.00409
Ar 4.53920 5.10609 11.00564
Ar 4.86730 8.78366 15.02837
Ar 7.72021 5.14071 13.72562
Ar 8.08265 9.61948 13.41812
Ar 7.35339 4.82439 17.24977
Ar 7.88241 8.13822 20.39672
Ar 9.52556 4.90218 20.08717
Ar 9.04263 8.06524 16.39560
Ar 7.33306 12.80180 1.27725
Ar 5.48523 14.36355 4.34700
Ar 7.46431 10.86017 4.85478
Ar 11.29271 13.62877 1.77248
Ar 4.13745 11.74635 6.24537
Ar 5.63782 14.81866 7.71186
Ar 8.60854 11.88493 8.35309
Ar 8.80928 13.81284 4.59173
Ar 5.57987 12.24990 10.58743
Ar 4.98208 13.35945 14.40695
Ar 8.61735 13.21928 12.58012
Ar 8.57593 15.27100 9.94521
Ar 6.06485 14.62271 17.77697
Ar 6.86004 14.89384 21.32686
Ar 9.62040 12.74306 16.22525
Ar 9.34107 16.31547 17.87333
Ar 5.19214 16.36104 1.42120
Ar 5.20411 21.09819 2.41380
Ar 8.64609 16.55349 2.23600
Ar 8.74244 21.49413 0.68479
Ar 5.63722 18.16620 5.47294
Ar 6.41361 19.78843 9.64070
Ar 8.76457 17.33079 7.16543
Ar 8.08934 20.97230 4.93237
Ar 5.22069 15.65650 11.61386
Ar 5.45273 19.74753 13.54732
Ar 7.29718 16.17969 14.34493
Ar 9.31308 19.17568 11.46404
Ar 5.72717 17.96603 18.24721
Ar 5.82436 19.35234 21.99952
Ar 9.11103 17.88562 21.53193
Ar 8.87324 19.31217 15.55741
Ar 11.66938 0.22855 0.37636
Ar 10.88541 4.28135 4.61079
Ar 14.23854 1.07180 3.42199
Ar 13.68133 3.37703 0.26426
Ar 10.99038 22.68622 7.41778
Ar 10.33145 3.66087 8.91486
Ar 13.36911 2.34454 6.66737
Ar 14.30965 4.75343 3.84595
Ar 10.66778 22.28087 10.79304
Ar 10.88087 2.09603 14.16418
Ar 14.03728 0.15398 13.80529
Ar 13.13642 2.71944 11.06154
Ar 11.93228 22.13088 16.98113
Ar 11.69134 1.26964 19.73058
Ar 14.53748 21.46879 19.43406
Ar 14.43977 2.23220 17.01005
Ar 8.58567 5.46931 1.45778
Ar 10.68489 10.25274 2.48287
Ar 11.76351 7.70094 4.77758
Ar 12.69155 6.66892 1.25653
Ar 9.88040 7.60516 8.24407
Ar 11.04146 10.45434 10.98773
Ar 13.22131 5.35007 8.97314
Ar 14.01197 8.42763 7.64709
Ar 11.37594 5.92356 12.00465
Ar 11.99480 7.74393 15.10141
Ar 14.16592 4.73001 14.44517
Ar 14.91638 6.75195 11.79472
Ar 11.57058 4.69141 16.91631
Ar 11.64746 7.94413 19.15868
Ar 13.39673 5.09610 20.04598
Ar 15.04125 7.05045 17.09783
Ar 13.65613 10.37097 0.51806
Ar 13.27115 13.94145 4.60886
Ar 14.60748 10.36503 4.41115
Ar 13.96190 14.12795 20.80327
Ar 10.84331 10.65415 6.35958
Ar 11.68498 14.94133 7.52316
Ar 14.61083 10.35724 10.72233
Ar 14.28009 11.86962 7.39342
Ar 12.31627 13.95518 12.19113
Ar 11.18695 16.11804 14.82323
Ar 14.90616 9.50476 13.99168
Ar 15.05422 14.48611 10.00561
Ar 13.37552 12.04450 15.34015
Ar 10.45590 14.52363 20.76823
Ar 12.35433 11.26688 18.81957
Ar 13.03424 14.81405 17.61813
Ar 12.17775 17.11302 0.18464
Ar 11.30672 20.75870 3.17132
Ar 15.58324 16.97329 4.52172
Ar 14.57995 20.11098 22.58926
Ar 12.03379 17.16215 4.54870
Ar 11.66143 19.60356 8.40722
Ar 14.97552 18.10515 8.24350
Ar 14.20183 21.28982 5.76430
Ar 12.85375 17.11851 10.93877
Ar 12.62398 19.61177 13.49774
Ar 15.50498 17.11183 13.99340
Ar 13.63253 22.45879 9.34967
Ar 12.15474 18.38896 17.41301
Ar 11.47888 20.66025 20.58266
Ar 15.18277 17.81028 19.57264
Ar 15.09013 20.17731 16.09674
Ar 17.02325 0.21616 0.24184
Ar 17.38124 3.80252 2.12112
Ar 20.40452 1.33465 2.12384
Ar 18.11085 4.73190 21.32573
Ar 18.98453 0.03182 4.89698
Ar 17.61426 2.81058 7.37997
Ar 21.42243 0.61878 8.71036
Ar 19.57174 4.20674 5.04766
Ar 17.18899 22.73489 11.09582
Ar 17.19487 2.22441 14.05966
Ar 20.13907 22.35602 14.75681
Ar 20.57424 2.14440 11.87192
Ar 17.27717 22.56281 17.01206
Ar 15.63983 1.87285 20.34527
Ar 20.57355 0.87862 21.24583
Ar 20.75920 1.76584 17.96736
Ar 16.24345 7.06505 1.35842
Ar 17.68342 10.17007 2.58743
Ar 19.72645 6.70100 1.31793
Ar 18.70308 8.29817 21.34714
Ar 16.14314 7.41456 4.91681
Ar 18.19162 6.68793 7.58984
Ar 22.10663 5.60143 7.87181
Ar 20.74378 7.87714 4.84071
Ar 16.99565 3.61865 10.64966
Ar 18.02726 5.73542 13.56551
Ar 20.16780 3.97562 15.33030
Ar 20.56143 5.50194 10.93886
Ar 17.71901 4.39207 17.75412
Ar 14.70693 8.82270 20.37780
Ar 21.10523 5.13419 19.55045
Ar 19.10092 7.95035 17.56814
Ar 16.61000 11.70549 20.52544
Ar 15.94744 13.54668 2.54676
Ar 21.70247 12.57742 1.44639
Ar 18.74987 14.57602 0.16720
Ar 17.47931 10.48589 7.02542
Ar 17.87079 12.09432 10.37339
Ar 20.88668 9.52427 8.22381
Ar 19.43559 12.33078 4.56394
Ar 18.28715 7.98668 10.66223
Ar 17.35563 14.11317 14.88662
Ar 18.48473 10.27279 13.97551
Ar 20.57841 13.56679 12.07567
Ar 16.01827 10.46761 17.26877
Ar 17.06311 14.49140 18.22993
Ar 20.17715 11.90732 20.54061
Ar 21.16915 13.70407 17.71874
Ar 15.57673 16.47387 0.26686
Ar 16.55922 20.84941 2.96816
Ar 20.45484 16.33523 3.88897
Ar 19.67560 18.76029 1.06305
Ar 17.36086 14.66752 7.26127
Ar 16.87615 22.00593 7.66948
Ar 18.17406 19.21642 9.43626
Ar 18.48015 19.33447 5.51909
Ar 17.63246 16.45879 11.23294
Ar 17.50599 19.85342 13.73400
Ar 19.94373 17.15039 14.69075
Ar 20.69800 20.67325 11.51043
Ar 17.34186 17.67464 16.94230
Ar 18.42113 20.92396 21.20712
Ar 19.52272 16.37137 19.85935
Ar 19.86454 19.93898 17.29321
256
frame 84
Ar 1.35088 0.28419 21.87520
Ar 22.01791 3.69666 22.73597
Ar 2.33680 1.27585 2.84024
Ar 2.49035 4.71431 0.61116
Ar 22.47741 0.09987 5.16196
Ar 1.09951 3.32130 9.63548
Ar 2.21761 22.74590 8.50896
Ar 3.09851 3.03086 5.76567
Ar 0.46175 0.08467 11.76588
Ar 0.12417 1.77860 14.76432
Ar 2.88698 21.56181 13.67936
Ar 3.00235 2.50670 12.80770
Ar 0.78782 21.92660 17.68199
Ar 2.02834 3.64140 19.95576
Ar 3.83819 21.29554 19.71079
Ar 3.34721 0.92523 16.43081
Ar 0.43253 7.15269 21.66001
Ar 0.42194 8.67813 2.19659
Ar 4.57700 7.54124 22.80185
Ar 5.45358 11.34647 21.30647
Ar 0.88129 5.74812 4.59752
Ar 1.04279 8.06016 10.15765
Ar 4.44805 6.15428 7.22224
Ar 2.13250 8.65798 5.89669
Ar 0.27794 4.96997 13.29018
Ar 20.95289 7.43274 14.55517
Ar 3.50323 5.40576 15.38085
Ar 1.67305 8.46925 13.87922
Ar 0.57924 4.33507 16.87578
Ar 0.64001 7.89160 18.16082
Ar 3.79230 6.81149 19.18918
Ar 2.93256 10.43211 17.14005
Ar 2.27992 11.62887 0.02498
Ar 2.33397 14.00254 2.69212
Ar 3.92761 10.29769 3.24036
Ar 3.32455 14.35249 20.49399
Ar 0.66872 11.67656 4.98552
Ar 21.48593 13.42302 8.63116
Ar 2.03718 11.38554 9.44051
Ar 1.60698 15.11105 6.66601
Ar 21.57484 9.92143 11.88392
Ar 0.10770 15.23023 14.67461
Ar 0.93645 12.47475 12.64955
Ar 1.55372 15.40919 10.17359
Ar 21.92409 10.81062 15.58828
Ar 22.69549 14.75248 20.62967
Ar 0.42301 11.51448 19.58887
Ar 2.62815 14.48085 17.06409
Ar 0.35799 16.66957 1.11765
Ar 22.14089 19.59888 3.78654
Ar 2.50575 17.21237 4.12453
Ar 2.16733 19.66117 22.76306
Ar 20.60105 16.75301 8.02360
Ar 21.46547 20.25051 7.28759
Ar 2.31556 18.88984 7.85866
Ar 2.67588 21.34199 4.61755
Ar 21.05229 17.06495 11.66724
Ar 22.55312 19.41830 14.82727
Ar 3.07729 16.87735 13.92803
Ar 1.14611 19.23771 11.01030
Ar 22.48207 17.02329 17.59067
Ar 22.45490 19.61845 20.06528
Ar 2.56312 17.69164 19.80725
Ar 2.96957 19.66771 16.81149
Ar 5.43549 0.16830 22.10792
Ar 6.36518 2.17553 2.32842
Ar 10.08996 0.93340 3.98244
Ar 8.44080 1.86522 21.03455
Ar 5.59743 0.73701 5.28467
Ar 4.98642 2.16917 8.63232
Ar 7.81187 0.50727 8.13292
Ar 6.74049 4.07344 5.41307
Ar 5.07528 22.43895 11.12858
Ar 6.03474 1.92231 14.49326
Ar 8.24896 22.11169 13.37096
Ar 7.44539 2.60039 11.52797
Ar 6.11446 21.36184 16.37213
Ar 5.71450 1.94371 18.71975
Ar 7.82144 21.44150 19.99321
Ar 8.78966 0.84763 17.14872
Ar 5.88568 4.29815 21.72324
Ar 7.19123 9.19135 1.85021
Ar 8.33003 7.15681 4.81640
Ar 9.30448 10.86076 21.33644
Ar 4.40705 6.47809 3.54374
Ar 4.31344 8.77201 11.00692
Ar 7.89622 5.94449 10.38582
Ar 6.48093 8.87706 8.03673
Ar 4.54915 5.22122 11.08108
Ar 4.77986 8.79952 15.03869
Ar 7.82795 5.17141 13.65679
Ar 7.99351 9.70460 13.43961
Ar 7.39117 4.79524 17.20868
Ar 7.77113 8.18612 20.42868
Ar 9.56786 4.99514 19.99762
Ar 8.97312 8.15893 16.53947
Ar 7.34582 12.80476 1.26607
Ar 5.47936 14.34872 4.37276
Ar 7.32720 10.86684 4.91141
Ar 11.31918 13.55545 1.67688
Ar 4.07514 11.83703 6.22860
Ar 5.65111 14.80820 7.70518
Ar 8.53556 11.87577 8.29748
Ar 8.95144 13.75069 4.56730
Ar 5.53037 12.22527 10.49394
Ar 5.05182 13.41560 14.27774
Ar 8.55674 13.08968 12.55306
Ar 8.48722 15.21441 9.95376
Ar 6.09304 14.64612 17.68811
Ar 6.86460 14.83867 21.30551
Ar 9.64281 12.75302 16.13128
Ar 9.46434 16.34575 17.92452
Ar 5.10073 16.26784 1.45117
Ar 5.30994 21.23538 2.33824
Ar 8.59829 16.57269 2.18124
Ar 8.79189 21.47120 0.72316
Ar 5.56442 18.22791 5.52708
Ar 6.41675 19.71621 9.67681
Ar 8.73394 17.37475 7.15133
Ar 8.03560 21.10104 4.96499
Ar 5.23465 15.54381 11.48954
Ar 5.53363 19.70382 13.47670
Ar 7.16116 16.08033 14.42465
Ar 9.40653 19.10807 11.41859
Ar 5.67796 18.01402 18.22531
Ar 5.68908 19.34311 21.99513
Ar 9.14028 17.89267 21.54797
Ar 8.94176 19.27237 15.51308
Ar 11.63519 0.22258 0.46214
Ar 10.88598 4.36772 4.75929
Ar 14.14753 1.04562 3.40215
Ar 13.74600 3.45049 0.21922
Ar 10.96782 22.61288 7.27746
Ar 10.24874 3.60174 8.93067
Ar 13.44125 2.49163 6.73253
Ar 14.36088 4.71248 3.82102
Ar 10.55810 22.23484 10.84483
Ar 10.86776 2.09830 14.13655
Ar 14.01993 0.19203 13.80946
Ar 13.06616 2.69450 11.03047
Ar 12.10611 22.00923 16.91338
Ar 11.67739 1.23717 19.70934
Ar 14.65169 21.45924 19.32658
Ar 14.39815 2.18422 17.08425
Ar 8.61660 5.49465 1.48248
Ar 10.65929 10.18876 2.42208
Ar 11.78231 7.83061 4.82836
Ar 12.58414 6.65810 1.16533
Ar 9.82217 7.66059 8.20736
Ar 11.06199 10.54442 11.04440
Ar 13.20493 5.41291 8.97373
Ar 14.08298 8.44550 7.59653
Ar 11.39024 5.88259 11.93083
Ar 12.08558 7.71347 15.09973
Ar 14.14074 4.62230 14.47233
Ar 15.00275 6.75898 11.70818
Ar 11.49351 4.77301 16.89387
Ar 11.56769 7.95511 19.15926
Ar 13.45103 5.21306 20.11283
Ar 15.03419 7.05396 17.03300
Ar 13.66789 10.32385 0.52613
Ar 13.29607 13.95141 4.70894
Ar 14.62207 10.38316 4.46491
Ar 13.97171 14.09113 20.80010
Ar 10.98743 10.60098 6.37155
Ar 11.60536 15.01508 7.59969
Ar 14.59528 10.45651 10.77449
Ar 14.22510 11.80919 7.37295
Ar 12.25125 13.95488 12.13864
Ar 11.19724 16.11260 14.82379
Ar 14.86269 9.50268 14.03719
Ar 15.06008 14.33903 10.10330
Ar 13.40276 12.07094 15.28496
Ar 10.47767 14.59958 20.69378
Ar 12.31675 11.41895 18.94711
Ar 13.10951 14.88001 17.52754
Ar 12.10456 17.20027 0.27069
Ar 11.26765 20.70606 3.13777
Ar 15.64772 16.93761 4.61162
Ar 14.58027 20.09832 22.47159
Ar 12.03133 17.23583 4.51883
Ar 11.65854 19.49498 8.39727
Ar 14.99413 18.15198 8.20317
Ar 14.14134 21.31695 5.75138
Ar 12.82937 17.21777 10.97526
Ar 12.73020 19.64391 13.52184
Ar 15.54437 17.12350 13.97732
Ar 13.57943 22.49729 9.38441
Ar 12.15892 18.43750 17.45930
Ar 11.47757 20.55100 20.60050
Ar 15.12252 17.78712 19.59152
Ar 15.07054 20.03239 16.18148
Ar 17.00402 0.30523 0.22872
Ar 17.35298 3.79772 2.01717
Ar 20.49752 1.32449 2.18015
Ar 18.07172 4.70441 21.39078
Ar 18.95001 22.74447 4.93820
Ar 17.56598 2.74964 7.35302
Ar 21.40934 0.71487 8.75315
Ar 19.61734 4.29522 4.93097
Ar 17.16083 22.76935 11.13593
Ar 17.25950 2.19325 14.01154
Ar 20.16103 22.38676 14.74549
Ar 20.57792 2.19164 11.82857
Ar 17.19686 22.58519 17.10343
Ar 15.77854 1.80170 20.26432
Ar 20.59510 0.83558 21.31456
Ar 20.72236 1.79837 17.94249
Ar 16.21855 7.14463 1.29031
Ar 17.73319 10.26184 2.56316
Ar 19.79170 6.63227 1.38137
Ar 18.67767 8.37732 21.26106
Ar 16.15950 7.32761 5.00237
Ar 18.25579 6.63916 7.52715
Ar 22.20507 5.57005 7.91386
Ar 20.70341 7.92267 4.80827
Ar 16.89949 3.63720 10.65504
Ar 17.87448 5.58497 13.47307
Ar 20.16048 3.91109 15.26801
Ar 20.49422 5.50655 11.02254
Ar 17.85431 4.42769 17.80378
Ar 14.64794 8.89770 20.46039
Ar 21.13775 5.11568 19.57535
Ar 19.08158 8.02082 17.57646
Ar 16.52123 11.77537 20.60476
Ar 16.06087 13.63070 2.54273
Ar 21.79229 12.58764 1.33315
Ar 18.76878 14.50692 0.14150
Ar 17.53536 10.46321 7.18225
Ar 17.80932 12.10115 10.33491
Ar 20.87178 9.61371 8.34466
Ar 19.41491 12.37128 4.57219
Ar 18.26962 8.06312 10.76488
Ar 17.34082 14.09763 14.94865
Ar 18.51000 10.17264 13.94546
Ar 20.51136 13.68686 12.17733
Ar 16.09390 10.35152 17.25834
Ar 17.06209 14.36270 18.22800
Ar 20.06013 11.93479 20.55122
Ar 21.27153 13.71401 17.72401
Ar 15.63866 16.35432 0.23556
Ar 16.51768 20.83849 2.96750
Ar 20.43295 16.25278 3.94783
Ar 19.70212 18.87611 0.99829
Ar 17.53165 14.64601 7.18151
Ar 16.89707 21.95287 7.59683
Ar 18.08593 19.35392 9.41769
Ar 18.38017 19.28466 5.54470
Ar 17.69554 16.35553 11.32121
Ar 17.52397 19.91943 13.67439
Ar 19.91389 17.16283 14.68638
Ar 20.70703 20.66831 11.52196
Ar 17.38980 17.65966 16.87675
Ar 18.39355 20.83044 21.10551
Ar 19.51859 16.38103 19.82135
Ar 20.00205 19.92105 17.19972
256
frame 85
Ar 1.32313 0.37682 21.74777
Ar 22.00987 3.69638 22.75336
Ar 2.30862 1.32504 2.79527
Ar 2.49527 4.74755 0.59505
Ar 22.42815 0.09528 5.11631
Ar 1.33023 3.19464 9.71243
Ar 2.14892 22.56101 8.51571
Ar 2.93535 2.97253 5.85202
Ar 0.47590 0.09397 11.70936
Ar 0.11392 1.68492 14.75229
Ar 2.85906 21.68352 13.57925
Ar 2.98550 2.40663 12.85110
Ar 0.83159 21.89518 17.63073
Ar 1.93812 3.65932 19.98152
Ar 3.83741 21.34028 19.76323
Ar 3.37180 0.98001 16.39874
Ar 0.38452 7.25839 21.61566
Ar 0.49986 8.60776 2.12357
Ar 4.70205 7.44902 22.78128
Ar 5.44706 11.39223 21.31083
Ar 0.86520 5.67780 4.48777
Ar 1.04952 8.09319 10.17720
Ar 4.44782 6.22408 7.20681
Ar 2.12310 8.60944 6.07338
Ar 0.23611 5.04926 13.25942
Ar 20.95825 7.39492 14.58319
Ar 3.46514 5.37808 15.35907
Ar 1.67835 8.51390 13.85618
Ar 0.61032 4.32461 16.85512
Ar 0.59396 7.83054 18.11297
Ar 3.76311 6.78343 19.23637
Ar 2.98441 10.44651 17.21815
Ar 2.28053 11.56772 22.80300
Ar 2.32309 14.06977 2.67535
Ar 3.91931 10.27930 3.30770
Ar 3.36298 14.34061 20.34857
Ar 0.67180 11.60897 5.10036
Ar 21.38370 13.37587 8.63637
Ar 2.04449 11.29039 9.50503
Ar 1.71131 15.12249 6.59430
Ar 21.55065 9.97517 11.89396
Ar 0.16020 15.22355 14.67663
Ar 0.99082 12.53421 12.61365
Ar 1.52263 15.34132 10.21007
Ar 21.84744 10.79670 15.52505
Ar 22.70556 14.79855 20.70578
Ar 0.41735 11.47120 19.68343
Ar 2.56041 14.36325 17.03239
Ar 0.33355 16.73373 1.23431
Ar 22.16666 19.60573 3.79469
Ar 2.49581 17.31932 4.22883
Ar 2.18093 19.69489 22.75709
Ar 20.56180 16.63075 7.99197
Ar 21.45659 20.17160 7.31115
Ar 2.45297 18.80378 7.77326
Ar 2.74633 21.43083 4.57893
Ar 21.11851 17.06960 11.65263
Ar 22.57231 19.36620 14.91654
Ar 3.03398 16.92436 14.00840
Ar 1.12624 19.27656 11.05380
Ar 22.48257 17.15229 17.55053
Ar 22.50737 19.51882 20.05740
Ar 2.67012 17.75669 19.90367
Ar 3.06945 19.68232 16.82583
Ar 5.43714 0.20920 22.13126
Ar 6.31225 2.12034 2.31290
Ar 10.04863 0.94424 4.07933
Ar 8.52091 1.87563 21.11287
Ar 5.58914 0.75762 5.26663
Ar 4.84261 2.19887 8.66057
Ar 7.84372 0.47426 8.11997
Ar 6.71149 4.06903 5.46084
Ar 5.19214 22.36538 11.16179
Ar 6.01387 1.84732 14.55888
Ar 8.18460 22.07457 13.40300
Ar 7.39109 2.57436 11.47920
Ar 6.02809 21.46839 16.45914
Ar 5.65005 1.95754 18.61963
Ar 7.85587 21.50765 19.98477
Ar 8.78470 0.81394 17.04530
Ar 5.88055 4.40437 21.84230
Ar 7.19824 9.30066 1.76666
Ar 8.30089 7.11787 4.86717
Ar 9.25774 10.86519 21.43047
Ar 4.41747 6.47917 3.48118
Ar 4.39123 8.85058 11.03585
Ar 7.91589 5.88305 10.38754
Ar 6.54609 8.87423 8.06759
Ar 4.54401 5.32760 11.15638
Ar 4.77855 8.78673 15.01725
Ar 7.94271 5.22837 13.64404
Ar 7.90304 9.77931 13.45025
Ar 7.42017 4.76540 17.16451
Ar 7.61440 8.16528 20.43924
Ar 9.62067 5.09596 19.92147
Ar 8.87864 8.25048 16.70125
Ar 7.36504 12.80547 1.27865
Ar 5.47782 14.34452 4.36229
Ar 7.17565 10.83977 4.98144
Ar 11.34597 13.49978 1.56400
Ar 4.00487 11.92600 6.26802
Ar 5.66317 14.80848 7.73127
Ar 8.44051 11.88895 8.26541
Ar 9.13800 13.72534 4.55216
Ar 5.48348 12.18358 10.39513
Ar 5.09648 13.42987 14.15618
Ar 8.49898 12.95126 12.55071
Ar 8.41365 15.18007 9.94729
Ar 6.13791 14.64056 17.60023
Ar 6.87103 14.80130 21.27120
Ar 9.66684 12.76607 16.04102
Ar 9.55042 16.37599 17.96770
Ar 4.99530 16.18581 1.46401
Ar 5.42557 21.36249 2.26440
Ar 8.56158 16.59289 2.12871
Ar 8.77297 21.41964 0.76079
Ar 5.49858 18.29466 5.58392
Ar 6.42182 19.61403 9.68369
Ar 8.70624 17.42768 7.12600
Ar 7.98668 21.19935 5.00401
Ar 5.24417 15.45618 11.33659
Ar 5.67179 19.58265 13.37584
Ar 7.05630 16.01614 14.51594
Ar 9.50073 18.99744 11.39173
Ar 5.66376 18.08008 18.20995
Ar 5.56426 19.30780 21.99909
Ar 9.13742 17.91175 21.54769
Ar 9.02162 19.22390 15.47061
Ar 11.66179 0.25885 0.54047
Ar 10.87374 4.45178 4.91196
Ar 14.05582 1.02933 3.35915
Ar 13.82152 3.49499 0.19582
Ar 10.94409 22.56215 7.08736
Ar 10.14417 3.52268 8.93475
Ar 13.51867 2.63414 6.80453
Ar 14.39648 4.65454 3.78886
Ar 10.44293 22.22546 10.89994
Ar 10.84883 2.10502 14.10806
Ar 14.01313 0.23513 13.81011
Ar 13.00240 2.65792 11.03223
Ar 12.26489 21.88681 16.81850
Ar 11.67705 1.22830 19.69315
Ar 14.77102 21.45440 19.21994
Ar 14.34771 2.13645 17.14842
Ar 8.64650 5.51844 1.50440
Ar 10.61807 10.11882 2.36757
Ar 11.84086 7.90465 4.85079
Ar 12.46146 6.66359 1.07508
Ar 9.80386 7.72529 8.15399
Ar 11.06719 10.62924 11.09851
Ar 13.20559 5.48663 8.93939
Ar 14.15231 8.45335 7.56060
Ar 11.38685 5.84389 11.87229
Ar 12.17661 7.69223 15.08148
Ar 14.12075 4.50432 14.48241
Ar 15.08381 6.77337 11.61310
Ar 11.40504 4.83758 16.88111
Ar 11.45963 7.97004 19.14653
Ar 13.52020 5.32172 20.16292
Ar 15.03066 7.03657 16.97907
Ar 13.68258 10.29820 0.56225
Ar 13.31850 13.94863 4.80223
Ar 14.62625 10.39621 4.45378
Ar 13.98262 14.06568 20.82033
Ar 11.13841 10.59414 6.38177
Ar 11.52142 15.08900 7.69604
Ar 14.58787 10.56077 10.80255
Ar 14.16658 11.81867 7.41890
Ar 12.17112 13.93163 12.09503
Ar 11.20039 16.11455 14.79847
Ar 14.87199 9.43556 14.06478
Ar 15.05930 14.19405 10.18243
Ar 13.38956 12.16084 15.25492
Ar 10.50244 14.65383 20.64021
Ar 12.27931 11.58156 19.06862
Ar 13.18993 14.95073 17.43458
Ar 12.04843 17.28327 0.37099
Ar 11.25701 20.60951 3.11179
Ar 15.71973 16.90115 4.69804
Ar 14.58566 20.07928 22.38769
Ar 12.01095 17.32507 4.48773
Ar 11.65053 19.35608 8.38765
Ar 15.01549 18.19177 8.14969
Ar 14.04859 21.31677 5.73755
Ar 12.80312 17.31614 11.00747
Ar 12.81809 19.68049 13.55049
Ar 15.54025 17.11245 13.95517
Ar 13.60339 22.52169 9.42279
Ar 12.17214 18.49842 17.51125
Ar 11.45937 20.42938 20.61694
Ar 15.05565 17.75551 19.61921
Ar 15.02724 19.89181 16.25325
Ar 16.97375 0.42808 0.27092
Ar 17.32888 3.77457 1.91594
Ar 20.59433 1.32047 2.22416
Ar 18.02364 4.67199 21.46459
Ar 18.91248 22.64551 4.98104
Ar 17.51105 2.67980 7.31813
Ar 21.38354 0.81315 8.77743
Ar 19.67855 4.38816 4.80089
Ar 17.13576 22.79907 11.17892
Ar 17.31424 2.13970 13.97848
Ar 20.17651 22.43260 14.72113
Ar 20.55238 2.23335 11.80924
Ar 17.14640 22.63007 17.19302
Ar 15.91996 1.76134 20.17640
Ar 20.60615 0.78226 21.38681
Ar 20.68845 1.81391 17.91614
Ar 16.18180 7.23092 1.21072
Ar 17.77350 10.32605 2.51232
Ar 19.87491 6.55694 1.45474
Ar 18.64643 8.46627 21.16879
Ar 16.19212 7.25117 5.06072
Ar 18.34673 6.57599 7.48801
Ar 22.27440 5.57684 7.91636
Ar 20.65626 7.97673 4.78377
Ar 16.79562 3.66096 10.66347
Ar 17.69820 5.47632 13.38654
Ar 20.17962 3.84240 15.19810
Ar 20.43542 5.52121 11.09490
Ar 17.96696 4.46054 17.85570
Ar 14.60963 8.93356 20.52043
Ar 21.16608 5.10409 19.58653
Ar 19.06096 8.09142 17.58686
Ar 16.44935 11.84155 20.70354
Ar 16.18352 13.70277 2.53939
Ar 21.87983 12.59911 1.22240
Ar 18.79559 14.43618 0.11659
Ar 17.58907 10.42726 7.32502
Ar 17.76528 12.10377 10.30393
Ar 20.86333 9.69878 8.45807
Ar 19.41814 12.43932 4.60277
Ar 18.23594 8.18096 10.87373
Ar 17.33616 14.07108 14.95526
Ar 18.53058 10.07838 13.91827
Ar 20.42480 13.79364 12.29184
Ar 16.18123 10.26213 17.25594
Ar 17.04616 14.22850 18.27167
Ar 19.91374 11.96142 20.58213
Ar 21.34506 13.72391 17.68229
Ar 15.70678 16.25219 0.20619
Ar 16.46681 20.82112 2.95630
Ar 20.40893 16.16575 4.00814
Ar 19.72991 18.98355 0.94048
Ar 17.70078 14.62188 7.10213
Ar 16.91742 21.92492 7.53958
Ar 18.02189 19.47730 9.41380
Ar 18.28802 19.20959 5.57993
Ar 17.75747 16.23910 11.40599
Ar 17.56953 20.00559 13.59896
Ar 19.85699 17.15742 14.72532
Ar 20.69043 20.66081 11.53308
Ar 17.43699 17.62567 16.84181
Ar 18.37508 20.69328 20.95494
Ar 19.51661 16.40728 19.78727
Ar 20.13976 19.91051 17.13772
256
frame 86
Ar 1.30394 0.47229 21.62366
Ar 22.00080 3.70860 22.77849
Ar 2.27510 1.41877 2.69764
Ar 2.50543 4.77348 0.59683
Ar 22.38799 0.11431 5.08526
Ar 1.56488 3.06710 9.79615
Ar 2.08199 22.36631 8.51083
Ar 2.75085 2.93099 5.94177
Ar 0.47526 0.11182 11.61345
Ar 0.11395 1.57228 14.75079
Ar 2.83877 21.77148 13.53317
Ar 2.98065 2.32194 12.88532
Ar 0.79913 21.90418 17.59805
Ar 1.85555 3.66830 20.02028
Ar 3.81733 21.38433 19.78034
Ar 3.34140 1.04359 16.36314
Ar 0.34112 7.36570 21.57811
Ar 0.58306 8.54526 2.06058
Ar 4.81310 7.40214 22.76334
Ar 5.45356 11.42355 21.30558
Ar 0.84150 5.59623 4.36455
Ar 1.05099 8.07625 10.18625
Ar 4.43945 6.27200 7.20578
Ar 2.11067 8.56074 6.26326
Ar 0.23778 5.11007 13.21813
Ar 20.95105 7.36433 14.61510
Ar 3.45688 5.35122 15.32317
Ar 1.64015 8.55767 13.82017
Ar 0.61882 4.32687 16.84680
Ar 0.52621 7.77588 18.04226
Ar 3.75128 6.75243 19.28291
Ar 3.00897 10.49586 17.33013
Ar 2.27706 11.49870 22.76601
Ar 2.30217 14.11690 2.66267
Ar 3.90563 10.25001 3.33650
Ar 3.41851 14.31194 20.23229
Ar 0.64773 11.55809 5.20464
Ar 21.28937 13.30179 8.64621
Ar 2.05152 11.22051 9.54141
Ar 1.80588 15.09763 6.54789
Ar 21.50456 10.03172 11.91708
Ar 0.17435 15.21275 14.66141
Ar 1.06878 12.59132 12.59014
Ar 1.49081 15.27813 10.25519
Ar 21.77923 10.78719 15.46802
Ar 22.71105 14.86785 20.80910
Ar 0.43719 11.40164 19.76925
Ar 2.48756 14.24263 16.98609
Ar 0.29914 16.79958 1.34413
Ar 22.19379 19.60148 3.79285
Ar 2.47648 17.46167 4.29175
Ar 2.18047 19.74359 22.78163
Ar 20.52232 16.54116 7.95540
Ar 21.44867 20.09217 7.35176
Ar 2.59171 18.71559 7.67705
Ar 2.82261 21.45335 4.58340
Ar 21.22902 17.09563 11.59256
Ar 22.64212 19.33550 14.94713
Ar 3.01311 16.98855 14.08636
Ar 1.12022 19.31486 11.10866
Ar 22.49321 17.26000 17.52717
Ar 22.53370 19.44119 20.07608
Ar 2.77200 17.80428 19.99670
Ar 3.15921 19.64840 16.77929
Ar 5.44386 0.29659 22.16370
Ar 6.27332 2.09228 2.25650
Ar 10.00345 1.00563 4.13262
Ar 8.59901 1.90070 21.20977
Ar 5.55516 0.75993 5.28461
Ar 4.70005 2.24868 8.70693
Ar 7.85690 0.44110 8.12825
Ar 6.69043 4.05701 5.51356
Ar 5.30588 22.33699 11.19022
Ar 6.02603 1.78996 14.63161
Ar 8.11462 22.04625 13.45542
Ar 7.34511 2.51976 11.39907
Ar 5.95831 21.57168 16.55509
Ar 5.60683 1.97788 18.55809
Ar 7.89034 21.54415 19.95420
Ar 8.79574 0.79027 16.94175
Ar 5.88762 4.47820 21.94656
Ar 7.20173 9.38904 1.67245
Ar 8.26312 7.10299 4.91232
Ar 9.24310 10.91544 21.54352
Ar 4.43232 6.47943 3.42154
Ar 4.48026 8.93239 11.07919
Ar 7.92804 5.84772 10.34978
Ar 6.59422 8.88354 8.09953
Ar 4.52071 5.41622 11.23567
Ar 4.85267 8.74950 14.97521
Ar 8.06313 5.29556 13.68569
Ar 7.81036 9.81491 13.46183
Ar 7.44036 4.73520 17.11716
Ar 7.42828 8.10033 20.43475
Ar 9.66890 5.18604 19.87272
Ar 8.77178 8.34009 16.86011
Ar 7.39034 12.81453 1.31445
Ar 5.49496 14.34803 4.32669
Ar 7.02931 10.80118 5.05298
Ar 11.37651 13.45898 1.43921
Ar 3.92607 12.00935 6.36310
Ar 5.67034 14.82048 7.77338
Ar 8.34819 11.91846 8.24219
Ar 9.34219 13.71345 4.54589
Ar 5.44256 12.12449 10.29117
Ar 5.09565 13.37714 14.04296
Ar 8.44729 12.84245 12.55270
Ar 8.37153 15.16477 9.93172
Ar 6.18801 14.61081 17.52760
Ar 6.88095 14.78378 21.22588
Ar 9.69190 12.78229 15.95738
Ar 9.58850 16.41175 17.98485
Ar 4.88423 16.12186 1.45156
Ar 5.53964 21.46553 2.21236
Ar 8.53198 16.61112 2.08077
Ar 8.70645 21.34909 0.78996
Ar 5.45232 18.36878 5.64554
Ar 6.43305 19.47894 9.66029
Ar 8.67840 17.48601 7.09304
Ar 7.94678 21.24772 5.04742
Ar 5.23148 15.41352 11.18335
Ar 5.81832 19.42341 13.27658
Ar 7.00098 16.01490 14.60235
Ar 9.58738 18.85139 11.38341
Ar 5.70738 18.14341 18.20512
Ar 5.47097 19.24879 22.00912
Ar 9.09364 17.93850 21.53065
Ar 9.10396 19.17235 15.43157
Ar 11.72900 0.32486 0.60625
Ar 10.85328 4.52824 5.06780
Ar 13.96482 1.02260 3.30012
Ar 13.90870 3.50730 0.19493
Ar 10.94812 22.50753 6.90781
Ar 10.03683 3.42933 8.92519
Ar 13.59877 2.75968 6.87828
Ar 14.41167 4.58651 3.74863
Ar 10.34507 22.25198 10.93274
Ar 10.82303 2.11634 14.07910
Ar 14.02024 0.28542 13.80533
Ar 12.94385 2.62694 11.05868
Ar 12.38399 21.79546 16.70698
Ar 11.69208 1.22745 19.67456
Ar 14.86234 21.44379 19.16019
Ar 14.28320 2.09391 17.19577
Ar 8.67469 5.54163 1.52418
Ar 10.56677 10.04742 2.31935
Ar 11.93472 7.89080 4.82544
Ar 12.32950 6.68292 0.98819
Ar 9.82770 7.78853 8.09599
Ar 11.05516 10.70135 11.14697
Ar 13.20640 5.55166 8.88010
Ar 14.22171 8.45836 7.54642
Ar 11.36851 5.81017 11.83452
Ar 12.22851 7.67737 15.05190
Ar 14.10455 4.38239 14.47057
Ar 15.13410 6.80065 11.51162
Ar 11.31261 4.88017 16.87164
Ar 11.34886 8.00715 19.12734
Ar 13.59953 5.42756 20.18957
Ar 15.03605 6.99045 16.94201
Ar 13.69647 10.29976 0.63816
Ar 13.33504 13.94568 4.87736
Ar 14.62942 10.40287 4.39066
Ar 13.97836 14.07649 20.85877
Ar 11.25422 10.66665 6.41454
Ar 11.43876 15.16152 7.80452
Ar 14.58551 10.65819 10.81705
Ar 14.12713 11.89199 7.52584
Ar 12.07604 13.90034 12.05921
Ar 11.19557 16.12703 14.74894
Ar 14.93078 9.33978 14.07345
Ar 15.04617 14.07346 10.24387
Ar 13.35556 12.28175 15.23558
Ar 10.53504 14.67711 20.62540
Ar 12.23497 11.73376 19.17654
Ar 13.28059 15.02697 17.35455
Ar 12.01742 17.36011 0.48657
Ar 11.26549 20.49302 3.09612
Ar 15.78755 16.85782 4.77616
Ar 14.59826 20.05771 22.33829
Ar 11.98210 17.41432 4.46078
Ar 11.63272 19.21757 8.36637
Ar 15.03695 18.22326 8.08631
Ar 13.93929 21.28999 5.72604
Ar 12.78567 17.39284 11.03742
Ar 12.88295 19.72315 13.58129
Ar 15.50090 17.08690 13.92734
Ar 13.66561 22.52199 9.45164
Ar 12.18157 18.55124 17.57098
Ar 11.43901 20.31467 20.62926
Ar 14.99030 17.71286 19.64790
Ar 15.00377 19.75740 16.28849
Ar 16.94995 0.54768 0.34646
Ar 17.30840 3.73754 1.83403
Ar 20.68713 1.32028 2.26167
Ar 17.97548 4.64397 21.52925
Ar 18.89105 22.56794 4.99785
Ar 17.45688 2.61210 7.27342
Ar 21.34818 0.90452 8.77037
Ar 19.74644 4.47641 4.66534
Ar 17.11260 22.82190 11.21199
Ar 17.35516 2.05672 13.96751
Ar 20.17560 22.48529 14.68693
Ar 20.50318 2.25891 11.81966
Ar 17.14708 22.69408 17.25166
Ar 16.06759 1.75520 20.08893
Ar 20.59884 0.71784 21.45334
Ar 20.65942 1.80709 17.90083
Ar 16.13834 7.31784 1.12536
Ar 17.80549 10.36528 2.43825
Ar 19.96437 6.48086 1.52551
Ar 18.61050 8.55412 21.08486
Ar 16.23277 7.19109 5.07567
Ar 18.46978 6.50301 7.49251
Ar 22.33141 5.59707 7.90267
Ar 20.60862 8.04209 4.76785
Ar 16.68177 3.67294 10.65035
Ar 17.53464 5.41511 13.34175
Ar 20.21065 3.78616 15.11354
Ar 20.37651 5.56164 11.14138
Ar 18.05689 4.49172 17.90567
Ar 14.58780 8.92664 20.53971
Ar 21.18750 5.09850 19.58693
Ar 19.04673 8.15743 17.59449
Ar 16.39990 11.87863 20.82576
Ar 16.30605 13.75702 2.55225
Ar 21.96049 12.61265 1.11644
Ar 18.83321 14.36897 0.09360
Ar 17.62865 10.37500 7.43584
Ar 17.75993 12.10561 10.29606
Ar 20.86514 9.77289 8.55611
Ar 19.44280 12.52528 4.65153
Ar 18.19796 8.32526 10.96821
Ar 17.34004 14.03619 14.91343
Ar 18.54088 9.99618 13.90303
Ar 20.32783 13.86990 12.41792
Ar 16.27489 10.21136 17.26612
Ar 17.02256 14.10339 18.34589
Ar 19.77165 11.98730 20.61360
Ar 21.39840 13.73577 17.61416
Ar 15.77154 16.18021 0.17375
Ar 16.40743 20.79840 2.93484
Ar 20.38330 16.07863 4.06912
Ar 19.76124 19.08198 0.89320
Ar 17.85754 14.59187 7.02665
Ar 16.90340 21.93465 7.50072
Ar 17.99211 19.55624 9.44810
Ar 18.21158 19.11349 5.62452
Ar 17.81630 16.11949 11.47729
Ar 17.62458 20.09792 13.52166
Ar 19.81333 17.12656 14.75723
Ar 20.65202 20.65446 11.54399
Ar 17.46269 17.57336 16.86860
Ar 18.34902 20.54848 20.77891
Ar 19.51546 16.44537 19.75595
Ar 20.24574 19.91549 17.12392
256
frame 87
Ar 1.29461 0.56317 21.50746
Ar 21.99134 3.73110 22.80831
Ar 2.23888 1.53640 2.56874
Ar 2.51614 4.79548 0.61449
Ar 22.36963 0.14737 5.07765
Ar 1.75857 2.96263 9.87375
Ar 2.02142 22.16674 8.49025
Ar 2.54957 2.89740 6.02699
Ar 0.44528 0.13701 11.48723
Ar 0.13385 1.46218 14.76119
Ar 2.84449 21.79740 13.54437
Ar 2.99910 2.27272 12.91618
Ar 0.71521 21.93186 17.58000
Ar 1.78255 3.67436 20.06686
Ar 3.78256 21.42786 19.76350
Ar 3.23370 1.11175 16.33029
Ar 0.30232 7.47101 21.54149
Ar 0.67067 8.49182 2.01449
Ar 4.88566 7.43673 22.76408
Ar 5.47434 11.43834 21.29200
Ar 0.81129 5.51348 4.23286
Ar 1.04654 8.00799 10.19303
Ar 4.43479 6.28709 7.22078
Ar 2.08177 8.52037 6.45454
Ar 0.28870 5.14276 13.16762
Ar 20.92896 7.34148 14.65317
Ar 3.47998 5.32697 15.27192
Ar 1.57743 8.60305 13.77960
Ar 0.60111 4.32851 16.84158
Ar 0.44599 7.73239 17.95077
Ar 3.74987 6.72029 19.32611
Ar 3.02492 10.55708 17.45402
Ar 2.27974 11.42273 22.74610
Ar 2.26462 14.13815 2.66067
Ar 3.88161 10.21506 3.34068
Ar 3.48287 14.27172 20.14942
Ar 0.59541 11.52136 5.29657
Ar 21.20530 13.20864 8.66426
Ar 2.05511 11.18208 9.54564
Ar 1.89002 15.03983 6.52820
Ar 21.45277 10.09199 11.95478
Ar 0.14319 15.20759 14.62895
Ar 1.15952 12.63585 12.58251
Ar 1.45979 15.22407 10.29750
Ar 21.72196 10.78512 15.42189
Ar 22.71376 14.94768 20.92368
Ar 0.45686 11.32123 19.84305
Ar 2.41762 14.11804 16.92384
Ar 0.25486 16.86771 1.44462
Ar 22.21960 19.58860 3.78402
Ar 2.44146 17.62749 4.30302
Ar 2.15419 19.81372 0.01892
Ar 20.49606 16.49826 7.91972
Ar 21.44217 20.01769 7.40536
Ar 2.71589 18.63031 7.59861
Ar 2.89281 21.43172 4.61235
Ar 21.35954 17.13154 11.51219
Ar 22.76448 19.33365 14.89214
Ar 3.01836 17.06646 14.15709
Ar 1.13763 19.35398 11.16295
Ar 22.51962 17.30745 17.52434
Ar 22.53519 19.39663 20.13061
Ar 2.86546 17.82634 20.07785
Ar 3.20185 19.59112 16.68270
Ar 5.45072 0.42356 22.17127
Ar 6.25110 2.10377 2.18035
Ar 9.94598 1.12469 4.10635
Ar 8.67061 1.94215 21.32229
Ar 5.49175 0.76384 5.33514
Ar 4.60207 2.29675 8.76072
Ar 7.84710 0.41206 8.15700
Ar 6.67569 4.03568 5.56948
Ar 5.41327 22.33904 11.20558
Ar 6.08107 1.76650 14.68871
Ar 8.04946 22.02405 13.52973
Ar 7.30575 2.45239 11.31236
Ar 5.91441 21.66001 16.65191
Ar 5.59553 2.00755 18.54576
Ar 7.92056 21.55639 19.90907
Ar 8.82686 0.77733 16.84408
Ar 5.92399 4.47633 22.02311
Ar 7.19426 9.44932 1.57615
Ar 8.21942 7.11539 4.94732
Ar 9.24522 10.98086 21.66059
Ar 4.45096 6.47764 3.37018
Ar 4.56913 9.00090 11.14002
Ar 7.92967 5.83998 10.28118
Ar 6.61643 8.89792 8.13635
Ar 4.48172 5.48454 11.31995
Ar 4.95454 8.69729 14.93501
Ar 8.18748 5.36406 13.75580
Ar 7.72005 9.78251 13.48128
Ar 7.45186 4.70497 17.07260
Ar 7.23946 8.02292 20.41957
Ar 9.69519 5.24636 19.86616
Ar 8.64741 8.42866 17.00066
Ar 7.42013 12.84613 1.36959
Ar 5.53310 14.35163 4.28543
Ar 6.90040 10.76237 5.11507
Ar 11.41097 13.42871 1.30598
Ar 3.84549 12.08191 6.49530
Ar 5.66910 14.84368 7.80052
Ar 8.27465 11.96416 8.22059
Ar 9.54907 13.70403 4.54775
Ar 5.41116 12.06395 10.18401
Ar 5.05362 13.26787 13.93566
Ar 8.40560 12.80434 12.53809
Ar 8.37627 15.16590 9.91563
Ar 6.23186 14.55371 17.49063
Ar 6.89706 14.78544 21.17454
Ar 9.71668 12.80189 15.88368
Ar 9.57613 16.45220 17.96971
Ar 4.77802 16.08447 1.40565
Ar 5.63221 21.52682 2.20379
Ar 8.50568 16.62546 2.03912
Ar 8.63398 21.27199 0.80262
Ar 5.44338 18.45029 5.70614
Ar 6.44863 19.32016 9.61100
Ar 8.64780 17.54606 7.05350
Ar 7.92173 21.23893 5.09085
Ar 5.18371 15.41953 11.05924
Ar 5.95498 19.24128 13.18882
Ar 6.99265 16.07652 14.66032
Ar 9.65476 18.69038 11.39260
Ar 5.82119 18.18967 18.21633
Ar 5.42437 19.17410 22.02476
Ar 9.01084 17.96322 21.50195
Ar 9.18559 19.12210 15.39574
Ar 11.80410 0.39997 0.65387
Ar 10.82740 4.59070 5.22738
Ar 13.88134 1.02148 3.23927
Ar 14.00405 3.49357 0.20960
Ar 10.97989 22.43197 6.79441
Ar 9.94039 3.32458 8.90095
Ar 13.68064 2.85524 6.94581
Ar 14.40603 4.51775 3.70416
Ar 10.27087 22.30159 10.93743
Ar 10.78976 2.13217 14.05009
Ar 14.04328 0.34502 13.79170
Ar 12.88927 2.61000 11.09950
Ar 12.44659 21.76266 16.58734
Ar 11.71992 1.22572 19.65230
Ar 14.90148 21.41852 19.17197
Ar 14.20386 2.05952 17.22353
Ar 8.69983 5.56469 1.54288
Ar 10.51447 9.97818 2.28050
Ar 12.04956 7.82011 4.76553
Ar 12.19490 6.71163 0.90368
Ar 9.89531 7.84457 8.04065
Ar 11.02588 10.74710 11.18491
Ar 13.19225 5.59841 8.81231
Ar 14.29466 8.48183 7.55082
Ar 11.33978 5.78257 11.81608
Ar 12.22491 7.66446 15.01271
Ar 14.08805 4.26098 14.43794
Ar 15.13350 6.84859 11.39731
Ar 11.22510 4.89892 16.85314
Ar 11.26378 8.08162 19.10984
Ar 13.68306 5.52890 20.19428
Ar 15.05496 6.91617 16.92443
Ar 13.71184 10.32489 0.74415
Ar 13.34359 13.95108 4.92961
Ar 14.63340 10.41153 4.30580
Ar 13.95591 14.14184 20.91409
Ar 11.31761 10.78508 6.45139
Ar 11.36380 15.23032 7.91821
Ar 14.58343 10.72678 10.83453
Ar 14.12982 12.00694 7.66775
Ar 11.97074 13.87876 12.02998
Ar 11.18433 16.15039 14.68063
Ar 15.03100 9.25110 14.06674
Ar 15.01617 14.00626 10.29452
Ar 13.31937 12.39812 15.20996
Ar 10.57008 14.67381 20.65531
Ar 12.17675 11.85529 19.26039
Ar 13.38241 15.11425 17.29692
Ar 12.00572 17.43149 0.61182
Ar 11.28026 20.39004 3.08081
Ar 15.83613 16.79559 4.83782
Ar 14.61843 20.03683 22.32384
Ar 11.95395 17.48059 4.44885
Ar 11.60344 19.09712 8.32259
Ar 15.05775 18.24833 8.01828
Ar 13.83858 21.23528 5.71227
Ar 12.79225 17.43157 11.06909
Ar 12.92043 19.77211 13.60745
Ar 15.43804 17.05179 13.89577
Ar 13.74447 22.49569 9.46672
Ar 12.17149 18.57515 17.64190
Ar 11.42573 20.22177 20.63933
Ar 14.93134 17.65802 19.67504
Ar 15.03529 19.62870 16.27953
Ar 16.93186 0.64662 0.43777
Ar 17.29149 3.69528 1.80104
Ar 20.76894 1.32480 2.29054
Ar 17.93604 4.63142 21.55964
Ar 18.89757 22.51205 4.97052
Ar 17.40789 2.55644 7.22005
Ar 21.30522 0.98777 8.72700
Ar 19.81668 4.55258 4.53118
Ar 17.08996 0.01276 11.22138
Ar 17.38084 1.95371 13.98477
Ar 20.14750 22.53139 14.64847
Ar 20.43635 2.26434 11.85487
Ar 17.21836 22.77705 17.25229
Ar 16.22433 1.78105 20.01619
Ar 20.56919 0.64361 21.51082
Ar 20.63604 1.77831 17.89995
Ar 16.09116 7.39933 1.03730
Ar 17.83546 10.38833 2.34896
Ar 20.05390 6.40858 1.58479
Ar 18.56830 8.63416 21.01864
Ar 16.28289 7.14412 5.04987
Ar 18.61711 6.42448 7.53708
Ar 22.38403 5.61879 7.88141
Ar 20.56440 8.12139 4.76106
Ar 16.55722 3.65872 10.59977
Ar 17.40999 5.39629 13.36483
Ar 20.24372 3.75037 15.01992
Ar 20.31087 5.63251 11.15956
Ar 18.12434 4.52159 17.94701
Ar 14.57706 8.88967 20.52276
Ar 21.20167 5.09849 19.58199
Ar 19.05166 8.20967 17.59434
Ar 16.36442 11.86656 20.98113
Ar 16.42333 13.78995 2.59171
Ar 22.02873 12.62907 1.01764
Ar 18.88142 14.31659 0.07945
Ar 17.64543 10.30194 7.50002
Ar 17.80807 12.11149 10.32264
Ar 20.88067 9.82433 8.62991
Ar 19.48659 12.60650 4.70290
Ar 18.16318 8.47700 11.02503
Ar 17.34851 13.99541 14.84512
Ar 18.53787 9.93864 13.92202
Ar 20.23820 13.90651 12.55575
Ar 16.36123 10.20468 17.28793
Ar 16.99852 13.99715 18.42214
Ar 19.66872 12.00686 20.62475
Ar 21.43845 13.74971 17.54139
Ar 15.83095 16.14738 0.13678
Ar 16.34144 20.77032 2.90705
Ar 20.35731 15.99716 4.12918
Ar 19.79644 19.17335 0.85570
Ar 17.98100 14.55276 6.95996
Ar 16.83517 21.97416 7.48631
Ar 17.99384 19.58378 9.52305
Ar 18.16221 19.01326 5.68063
Ar 17.86552 16.00911 11.53004
Ar 17.67501 20.18093 13.45440
Ar 19.81400 17.07235 14.74342
Ar 20.60341 20.65457 11.55445
Ar 17.45475 17.50386 16.96818
Ar 18.31400 20.40582 20.58584
Ar 19.51555 16.49079 19.72833
Ar 20.29923 19.94526 17.15953
256
frame 88
Ar 1.29096 0.63693 21.40585
Ar 21.98230 3.75900 0.01428
Ar 2.20253 1.65883 2.42895
Ar 2.52725 4.81887 0.64344
Ar 22.38404 0.18500 5.10145
Ar 1.82018 2.91250 9.95458
Ar 1.97017 21.96791 8.44992
Ar 2.33622 2.86446 6.10508
Ar 0.39724 0.15870 11.36414
Ar 0.16868 1.36746 14.77354
Ar 2.86591 21.75707 13.59229
Ar 3.04873 2.26758 12.95447
Ar 0.60143 21.95833 17.57572
Ar 1.72219 3.69093 20.11158
Ar 3.74117 21.46762 19.72178
Ar 3.08592 1.18986 16.31447
Ar 0.26717 7.57230 21.49802
Ar 0.76223 8.44770 1.98997
Ar 4.89521 7.54088 22.79459
Ar 5.50965 11.43575 21.27282
Ar 0.77542 5.43360 4.09550
Ar 1.03783 7.90136 10.20414
Ar 4.44453 6.26232 7.25233
Ar 2.02553 8.49948 6.63933
Ar 0.37838 5.15007 13.10756
Ar 20.89851 7.31961 14.69326
Ar 3.52780 5.30343 15.20945
Ar 1.50935 8.65147 13.74237
Ar 0.56444 4.32139 16.83081
Ar 0.36090 7.70518 17.84378
Ar 3.75148 6.68787 19.36384
Ar 3.04565 10.61259 17.57639
Ar 2.30137 11.33895 22.75070
Ar 2.20669 14.13076 2.67507
Ar 3.84353 10.17988 3.33070
Ar 3.54589 14.22523 20.09522
Ar 0.51773 11.49459 5.37710
Ar 21.13297 13.12326 8.69063
Ar 2.04589 11.16622 9.52338
Ar 1.96185 14.97317 6.52262
Ar 21.40838 10.15585 12.00259
Ar 0.07760 15.21907 14.57832
Ar 1.25794 12.65473 12.59643
Ar 1.43230 15.18506 10.32489
Ar 21.67835 10.79339 15.39411
Ar 22.71653 15.03144 21.03814
Ar 0.45825 11.23950 19.89915
Ar 2.35487 13.99280 16.84877
Ar 0.20139 16.93479 1.53159
Ar 22.23810 19.57609 3.77379
Ar 2.39296 17.79316 4.26498
Ar 2.10400 19.90483 0.11255
Ar 20.49930 16.50601 7.89406
Ar 21.43819 19.95247 7.46772
Ar 2.80053 18.55083 7.57301
Ar 2.94389 21.38344 4.64932
Ar 21.48362 17.15818 11.42668
Ar 0.08857 19.35891 14.76908
Ar 3.04276 17.14379 14.21378
Ar 1.18614 19.39982 11.21191
Ar 22.56385 17.29016 17.53415
Ar 22.51667 19.38492 20.22215
Ar 2.94205 17.82116 20.13840
Ar 3.19706 19.52922 16.56509
Ar 5.44823 0.56821 22.13138
Ar 6.24765 2.16367 2.11823
Ar 9.87260 1.28616 4.01450
Ar 8.73694 1.99329 21.44662
Ar 5.41007 0.77988 5.40579
Ar 4.63362 2.31931 8.78271
Ar 7.81929 0.38271 8.19843
Ar 6.66894 4.00677 5.62688
Ar 5.50343 22.34511 11.20384
Ar 6.15792 1.78724 14.72930
Ar 8.00320 21.99846 13.61930
Ar 7.27748 2.39179 11.23427
Ar 5.89055 21.72846 16.74910
Ar 5.60676 2.04278 18.57411
Ar 7.94565 21.55374 19.85709
Ar 8.88121 0.77413 16.76094
Ar 5.98715 4.40081 22.07189
Ar 7.17184 9.48143 1.48683
Ar 8.17022 7.15301 4.97013
Ar 9.25870 11.04843 21.76954
Ar 4.47327 6.47238 3.33203
Ar 4.64660 9.03652 11.22365
Ar 7.91776 5.85465 10.19881
Ar 6.61515 8.90872 8.18141
Ar 4.43135 5.53284 11.40830
Ar 5.02852 8.62596 14.92046
Ar 8.31421 5.43379 13.82595
Ar 7.66218 9.69844 13.49360
Ar 7.45386 4.67512 17.04036
Ar 7.07484 7.94939 20.38320
Ar 9.69191 5.26983 19.90782
Ar 8.49780 8.51713 17.11196
Ar 7.45257 12.90901 1.43941
Ar 5.58701 14.35012 4.25078
Ar 6.79311 10.72832 5.16114
Ar 11.44831 13.40492 1.16958
Ar 3.77578 12.13316 6.64141
Ar 5.66206 14.87757 7.78225
Ar 8.23162 12.02589 8.19441
Ar 9.75029 13.69526 4.55518
Ar 5.39108 12.03049 10.07602
Ar 4.98870 13.13258 13.83520
Ar 8.36955 12.83557 12.50340
Ar 8.42304 15.18466 9.90799
Ar 6.26430 14.46703 17.49512
Ar 6.92176 14.80400 21.12310
Ar 9.73886 12.82513 15.82217
Ar 9.51712 16.48480 17.93385
Ar 4.68484 16.07698 1.32438
Ar 5.67716 21.54379 2.24513
Ar 8.48016 16.63501 2.00495
Ar 8.59395 21.19208 0.78813
Ar 5.49050 18.53623 5.74597
Ar 6.46454 19.14980 9.54245
Ar 8.61414 17.60247 7.00668
Ar 7.91481 21.18612 5.13046
Ar 5.10014 15.46724 10.99051
Ar 6.07737 19.05038 13.10979
Ar 7.01463 16.17235 14.67893
Ar 9.68695 18.53306 11.41824
Ar 5.98987 18.22145 18.24092
Ar 5.42852 19.09770 22.04993
Ar 8.89719 17.97818 21.46694
Ar 9.26449 19.07958 15.36228
Ar 11.85789 0.46842 0.66573
Ar 10.79647 4.63358 5.39256
Ar 13.82100 1.02193 3.20202
Ar 14.10093 3.46376 0.22661
Ar 11.00050 22.35078 6.75422
Ar 9.86398 3.21309 8.86275
Ar 13.76425 2.90594 6.99700
Ar 14.38038 4.45869 3.66309
Ar 10.21677 22.36212 10.92035
Ar 10.74899 2.15228 14.02130
Ar 14.08236 0.41388 13.76557
Ar 12.83896 2.60472 11.14179
Ar 12.45648 21.78497 16.47218
Ar 11.75244 1.21840 19.63114
Ar 14.89894 21.38652 19.22532
Ar 14.11907 2.03433 17.23453
Ar 8.71909 5.58727 1.56196
Ar 10.47066 9.91324 2.25592
Ar 12.17533 7.73619 4.69070
Ar 12.06536 6.74592 0.81902
Ar 10.00038 7.89281 7.99114
Ar 10.98025 10.75055 11.20727
Ar 13.14973 5.63191 8.75050
Ar 14.37320 8.53823 7.56574
Ar 11.30570 5.76198 11.81158
Ar 12.17552 7.65558 14.96445
Ar 14.06707 4.14443 14.38775
Ar 15.08746 6.91606 11.27186
Ar 11.14852 4.89418 16.81795
Ar 11.22173 8.19616 19.10064
Ar 13.76371 5.61178 20.18348
Ar 15.08696 6.82206 16.92222
Ar 13.73186 10.36527 0.85697
Ar 13.34567 13.96658 4.95978
Ar 14.63978 10.42636 4.22188
Ar 13.93001 14.25213 20.98052
Ar 11.33412 10.90905 6.47069
Ar 11.30506 15.29248 8.02969
Ar 14.57970 10.74090 10.87256
Ar 14.17447 12.13901 7.80702
Ar 11.86237 13.88369 12.00579
Ar 11.17112 16.18199 14.60121
Ar 15.15582 9.17741 14.05143
Ar 14.97960 14.02295 10.35136
Ar 13.29001 12.49314 15.16950
Ar 10.58808 14.66594 20.71868
Ar 12.10563 11.93217 19.31257
Ar 13.49353 15.21648 17.26297
Ar 12.00422 17.49770 0.73723
Ar 11.28837 20.33869 3.04804
Ar 15.85201 16.70201 4.87410
Ar 14.64502 20.01620 22.34675
Ar 11.93537 17.49322 4.46912
Ar 11.56693 19.00042 8.25569
Ar 15.07736 18.27104 7.95269
Ar 13.78122 21.14513 5.68393
Ar 12.83967 17.42536 11.10160
Ar 12.92873 19.82486 13.61921
Ar 15.36235 17.00565 13.86078
Ar 13.82606 22.44875 9.47182
Ar 12.14529 18.57307 17.71538
Ar 11.42390 20.16003 20.65449
Ar 14.88166 17.59336 19.70180
Ar 15.11180 19.52278 16.24317
Ar 16.91347 0.70373 0.52450
Ar 17.28456 3.66931 1.84165
Ar 20.83447 1.33658 2.30437
Ar 17.91065 4.64309 21.54420
Ar 18.92364 22.46876 4.90625
Ar 17.36968 2.52313 7.15827
Ar 21.25357 1.06623 8.64894
Ar 19.88584 4.60644 4.41486
Ar 17.06689 0.02101 11.19553
Ar 17.38911 1.85176 14.03262
Ar 20.09076 22.56048 14.61265
Ar 20.35790 2.25188 11.89564
Ar 17.34294 0.03959 17.19927
Ar 16.38591 1.83200 19.96766
Ar 20.51859 0.56196 21.55904
Ar 20.61832 1.73294 17.91025
Ar 16.04203 7.47036 0.94839
Ar 17.86831 10.40248 2.25086
Ar 20.14073 6.35150 1.61804
Ar 18.51769 8.70055 20.97646
Ar 16.34672 7.10543 4.99687
Ar 18.77475 6.34476 7.60754
Ar 22.43483 5.63610 7.85298
Ar 20.52475 8.21542 4.76346
Ar 16.42613 3.62188 10.52123
Ar 17.32388 5.40570 13.44605
Ar 20.27539 3.73687 14.93369
Ar 20.24025 5.72522 11.15708
Ar 18.16860 4.54995 17.97191
Ar 14.57396 8.84756 20.48619
Ar 21.20999 5.10410 19.57812
Ar 19.08894 8.23808 17.58390
Ar 16.32106 11.81049 21.17468
Ar 16.53237 13.80392 2.65884
Ar 22.07945 12.64801 0.92883
Ar 18.93676 14.29306 0.08486
Ar 17.63791 10.21048 7.51861
Ar 17.90415 12.12679 10.38057
Ar 20.91035 9.83276 8.67215
Ar 19.55505 12.64802 4.73312
Ar 18.12986 8.61581 11.02021
Ar 17.35442 13.94975 14.77029
Ar 18.52405 9.91889 14.00190
Ar 20.18389 13.89404 12.70546
Ar 16.42309 10.24223 17.31796
Ar 16.97731 13.91129 18.48515
Ar 19.62741 12.01281 20.59645
Ar 21.46639 13.76416 17.47851
Ar 15.89070 16.15654 0.10276
Ar 16.27122 20.73663 2.87778
Ar 20.33390 15.93214 4.18450
Ar 19.83418 19.26082 0.82390
Ar 18.04185 14.50829 6.91613
Ar 16.72487 22.01727 7.49518
Ar 18.00992 19.57135 9.61822
Ar 18.15118 18.93094 5.75184
Ar 17.88993 15.92773 11.55604
Ar 17.70747 20.24127 13.40860
Ar 19.84591 17.00939 14.69413
Ar 20.56467 20.66555 11.56385
Ar 17.43855 17.40818 17.11571
Ar 18.27366 20.26509 20.38205
Ar 19.52057 16.53851 19.70955
Ar 20.30998 19.99621 17.22161
256
frame 89
Ar 1.28492 0.67648 21.32683
Ar 21.97651 3.78593 0.03845
Ar 2.16625 1.77417 2.29088
Ar 2.54102 4.85072 0.67558
Ar 22.43399 0.22076 5.15768
Ar 1.74184 2.92929 10.02782
Ar 1.92799 21.77734 8.38973
Ar 2.11787 2.82797 6.18075
Ar 0.34378 0.16475 11.27294
Ar 0.18381 1.29192 14.76312
Ar 2.89464 21.67064 13.65398
Ar 3.13024 2.29486 13.00499
Ar 0.47277 21.97223 17.58744
Ar 1.67812 3.73639 20.14343
Ar 3.69821 21.49809 19.66506
Ar 2.96689 1.28044 16.34038
Ar 0.23482 7.66888 21.44393
Ar 0.85637 8.41119 1.98640
Ar 4.82561 7.66004 0.02624
Ar 5.55925 11.41644 21.25062
Ar 0.73558 5.35662 3.95477
Ar 1.02879 7.77526 10.22636
Ar 4.46707 6.20293 7.29798
Ar 1.94437 8.49922 6.81360
Ar 0.48942 5.13957 13.03876
Ar 20.87041 7.29096 14.72515
Ar 3.59043 5.27655 15.14363
Ar 1.44660 8.70257 13.71284
Ar 0.52025 4.30178 16.80841
Ar 0.27612 7.69871 17.72736
Ar 3.74873 6.65477 19.39451
Ar 3.07998 10.64917 17.69329
Ar 2.34956 11.24682 22.78213
Ar 2.13265 14.09875 2.70722
Ar 3.79098 10.14786 3.31199
Ar 3.59737 14.17590 20.06039
Ar 0.42081 11.47493 5.44878
Ar 21.07407 13.07737 8.72283
Ar 2.01099 11.15602 9.49150
Ar 2.01109 14.93020 6.51967
Ar 21.37493 10.22236 12.04883
Ar 0.00402 15.25207 14.51114
Ar 1.36194 12.63969 12.63671
Ar 1.41152 15.16280 10.32750
Ar 21.65217 10.81392 15.39451
Ar 22.72170 15.11836 21.14453
Ar 0.43184 11.16131 19.93592
Ar 2.29978 13.87590 16.76338
Ar 0.13972 16.99243 1.59768
Ar 22.23695 19.57952 3.76918
Ar 2.34914 17.93737 4.19116
Ar 2.04310 20.01034 0.22751
Ar 20.53368 16.55144 7.88269
Ar 21.43864 19.90229 7.53552
Ar 2.83234 18.47025 7.61623
Ar 2.96752 21.31840 4.68727
Ar 21.58015 17.16558 11.34510
Ar 0.22755 19.39997 14.61548
Ar 3.07814 17.18944 14.23538
Ar 1.26988 19.45641 11.25098
Ar 22.62338 17.23646 17.54553
Ar 22.48305 19.39562 20.33932
Ar 2.99151 17.79242 20.17305
Ar 3.17324 19.48667 16.47439
Ar 5.43058 0.70478 22.04651
Ar 6.26280 2.26539 2.09643
Ar 9.78956 1.46172 3.89488
Ar 8.80269 2.04511 21.57888
Ar 5.32543 0.80652 5.48585
Ar 4.79242 2.31852 8.75629
Ar 7.77629 0.34329 8.24095
Ar 6.67516 3.97487 5.68369
Ar 5.56269 22.32799 11.18598
Ar 6.22881 1.85585 14.76081
Ar 7.98330 21.95738 13.71205
Ar 7.27042 2.36011 11.17824
Ar 5.87454 21.77666 16.84234
Ar 5.62637 2.07913 18.62979
Ar 7.96733 21.54385 19.80510
Ar 8.95938 0.77788 16.70393
Ar 6.05766 4.30129 22.09943
Ar 7.14209 9.50015 1.41650
Ar 8.11612 7.21001 4.98162
Ar 9.28301 11.11513 21.86068
Ar 4.49966 6.46205 3.31208
Ar 4.70618 9.03611 11.33049
Ar 7.89299 5.88432 10.11284
Ar 6.60090 8.91125 8.23575
Ar 4.37335 5.56125 11.49796
Ar 5.03007 8.52533 14.95425
Ar 8.44059 5.50746 13.88029
Ar 7.67981 9.60865 13.47160
Ar 7.44492 4.64676 17.02837
Ar 6.95359 7.88429 20.31545
Ar 9.66752 5.26841 19.98766
Ar 8.32539 8.60563 17.19058
Ar 7.48733 12.99901 1.51781
Ar 5.64756 14.34450 4.22413
Ar 6.70715 10.70189 5.18922
Ar 11.48838 13.38394 1.04087
Ar 3.73410 12.14428 6.77739
Ar 5.65805 14.92520 7.71404
Ar 8.22662 12.10055 8.15737
Ar 9.93516 13.68973 4.56307
Ar 5.37782 12.03955 9.97354
Ar 4.91236 12.98899 13.74233
Ar 8.32827 12.90253 12.46005
Ar 8.48109 15.22415 9.91630
Ar 6.28782 14.35839 17.52361
Ar 6.95502 14.83580 21.07724
Ar 9.75529 12.85219 15.77338
Ar 9.41929 16.49674 17.89131
Ar 4.60536 16.09230 1.21580
Ar 5.66516 21.53413 2.32183
Ar 8.45419 16.64022 1.97881
Ar 8.60004 21.10976 0.74082
Ar 5.58644 18.62341 5.74689
Ar 6.47645 18.97688 9.46225
Ar 8.58352 17.64615 6.95101
Ar 7.92617 21.11248 5.16420
Ar 4.99369 15.54566 10.98192
Ar 6.18167 18.87967 13.02545
Ar 7.05809 16.25796 14.68055
Ar 9.67853 18.38755 11.45767
Ar 6.18577 18.24747 18.27156
Ar 5.47593 19.03556 22.09133
Ar 8.76673 17.98251 21.42648
Ar 9.33855 19.05390 15.33110
Ar 11.86858 0.52077 0.62015
Ar 10.76018 4.65709 5.56454
Ar 13.80024 1.01960 3.21503
Ar 14.19284 3.42600 0.23229
Ar 10.97350 22.29270 6.76330
Ar 9.81372 3.10367 8.81338
Ar 13.84802 2.90224 7.02536
Ar 14.33466 4.41990 3.63497
Ar 10.17779 22.42669 10.89125
Ar 10.70141 2.17663 13.99208
Ar 14.13421 0.48635 13.72480
Ar 12.79362 2.60457 11.17130
Ar 12.42642 21.83735 16.37770
Ar 11.77789 1.20217 19.62012
Ar 14.87602 21.36337 19.27782
Ar 14.04620 2.02084 17.23207
Ar 8.72764 5.60778 1.58338
Ar 10.44157 9.85355 2.25036
Ar 12.30887 7.65791 4.60945
Ar 11.94931 6.78410 0.73085
Ar 10.13010 7.93462 7.94833
Ar 10.92085 10.70610 11.21270
Ar 13.07037 5.66477 8.69769
Ar 14.45315 8.62335 7.58485
Ar 11.27125 5.74948 11.81411
Ar 12.10200 7.65592 14.90797
Ar 14.03919 4.03859 14.32432
Ar 15.01890 6.99390 11.14773
Ar 11.08369 4.86833 16.76987
Ar 11.21688 8.33508 19.10122
Ar 13.83318 5.65127 20.16352
Ar 15.12818 6.71825 16.92653
Ar 13.75340 10.41420 0.95081
Ar 13.34841 13.98877 4.97231
Ar 14.65341 10.44800 4.16003
Ar 13.91246 14.37495 21.04510
Ar 11.32437 11.02454 6.47141
Ar 11.27648 15.34408 8.12802
Ar 14.57726 10.69962 10.93765
Ar 14.23919 12.26074 7.89831
Ar 11.75659 13.91966 11.98171
Ar 11.16184 16.21745 14.51899
Ar 15.27792 9.10965 14.03731
Ar 14.95475 14.13348 10.44363
Ar 13.27209 12.56509 15.11351
Ar 10.56686 14.67864 20.79825
Ar 12.03290 11.96356 19.33336
Ar 13.61081 15.32901 17.24477
Ar 12.00748 17.55628 0.85275
Ar 11.28473 20.35439 2.99172
Ar 15.83560 16.57985 4.88264
Ar 14.67609 19.99270 22.40757
Ar 11.92889 17.44275 4.53058
Ar 11.53279 18.92773 8.17697
Ar 15.09458 18.29473 7.89611
Ar 13.78684 21.01441 5.63176
Ar 12.93119 17.38026 11.12730
Ar 12.91096 19.87567 13.60808
Ar 15.28106 16.94391 13.82187
Ar 13.89251 22.38988 9.47622
Ar 12.11945 18.56262 17.77188
Ar 11.43115 20.13219 20.68656
Ar 14.84315 17.52821 19.73192
Ar 15.19846 19.46123 16.19960
Ar 16.89021 0.70089 0.59051
Ar 17.30077 3.68518 1.95056
Ar 20.88265 1.35591 2.30126
Ar 17.89841 4.68099 21.50318
Ar 18.95147 22.42822 4.82519
Ar 17.35043 2.51936 7.08694
Ar 21.19160 1.14385 8.54264
Ar 19.94977 4.62279 4.34657
Ar 17.04532 0.02786 11.13405
Ar 17.37488 1.77313 14.10250
Ar 20.02353 22.56850 14.58680
Ar 20.27325 2.22323 11.91457
Ar 17.48737 0.11010 17.11770
Ar 16.54318 1.89460 19.94082
Ar 20.45186 0.47493 21.59830
Ar 20.60712 1.67929 17.92762
Ar 15.99241 7.52711 0.86021
Ar 17.90598 10.41148 2.14701
Ar 20.22374 6.33195 1.60203
Ar 18.45761 8.74783 20.95973
Ar 16.42440 7.07245 4.92937
Ar 18.93038 6.26742 7.69014
Ar 22.48480 5.64342 7.81445
Ar 20.48883 8.32169 4.77400
Ar 16.29359 3.57615 10.43414
Ar 17.26141 5.43341 13.55583
Ar 20.30498 3.74609 14.87525
Ar 20.17142 5.82689 11.14526
Ar 18.18950 4.57645 17.97207
Ar 14.57977 8.83038 20.44237
Ar 21.21393 5.11571 19.58035
Ar 19.15935 8.24131 17.56654
Ar 16.26347 11.73426 21.40023
Ar 16.63158 13.80402 2.74659
Ar 22.11082 12.66602 0.85250
Ar 18.99624 14.30253 0.11265
Ar 17.61465 10.11159 7.50536
Ar 18.02469 12.15609 10.45552
Ar 20.95210 9.77684 8.68086
Ar 19.65510 12.61730 4.72476
Ar 18.09455 8.73336 10.95987
Ar 17.34513 13.89935 14.70550
Ar 18.50861 9.93580 14.13865
Ar 20.18475 13.82609 12.85915
Ar 16.45355 10.31652 17.35379
Ar 16.95805 13.83956 18.53733
Ar 19.64296 12.00656 20.52304
Ar 21.47987 13.77680 17.43373
Ar 15.96218 16.20689 0.08623
Ar 16.19977 20.69712 2.85131
Ar 20.31680 15.89816 4.22990
Ar 19.87276 19.34702 0.79308
Ar 18.02596 14.46963 6.91254
Ar 16.60419 22.04136 7.51263
Ar 18.02002 19.52888 9.70902
Ar 18.17753 18.87489 5.83699
Ar 17.88332 15.88750 11.54918
Ar 17.70813 20.26964 13.39284
Ar 19.87973 16.95632 14.63498
Ar 20.55877 20.68944 11.57195
Ar 17.43666 17.28110 17.27315
Ar 18.23037 20.12491 20.17599
Ar 19.54118 16.58158 19.71236
Ar 20.29693 20.05508 17.28724
256
frame 90
Ar 1.26943 0.67433 21.27367
Ar 21.97953 3.80469 0.05018
Ar 2.12837 1.87011 2.16346
Ar 2.55974 4.90024 0.69937
Ar 22.51064 0.25004 5.23594
Ar 1.61632 3.00261 10.06337
Ar 1.89063 21.60727 8.31480
Ar 1.90324 2.78897 6.25979
Ar 0.29192 0.14854 11.21964
Ar 0.14796 1.23343 14.70552
Ar 2.93468 21.57426 13.71466
Ar 3.23391 2.33457 13.05625
Ar 0.34601 21.97161 17.61513
Ar 1.65215 3.81818 20.15786
Ar 3.65410 21.51452 19.60252
Ar 2.92138 1.37983 16.42808
Ar 0.20521 7.75962 21.38193
Ar 0.94883 8.37822 1.99717
Ar 4.67554 7.76261 0.08224
Ar 5.62218 11.38279 21.22654
Ar 0.69453 5.28024 3.81429
Ar 1.02270 7.64407 10.26842
Ar 4.49078 6.12336 7.35504
Ar 1.85186 8.51239 6.97189
Ar 0.60688 5.11770 12.96480
Ar 20.85387 7.25296 14.73443
Ar 3.65830 5.24008 15.08557
Ar 1.39414 8.75460 13.69317
Ar 0.47799 4.26996 16.77291
Ar 0.19618 7.71435 17.60761
Ar 3.73391 6.62039 19.41618
Ar 3.13376 10.65760 17.80652
Ar 2.42117 11.14812 0.00951
Ar 2.05220 14.05102 2.75427
Ar 3.72870 10.12176 3.28953
Ar 3.62968 14.12516 20.03720
Ar 0.31348 11.46078 5.51506
Ar 21.03144 13.07752 8.75666
Ar 1.93802 11.13757 9.47542
Ar 2.02757 14.93273 6.51206
Ar 21.34809 10.28945 12.07882
Ar 22.78448 15.30354 14.43367
Ar 1.46671 12.59368 12.70140
Ar 1.40051 15.14887 10.30286
Ar 21.64844 10.84601 15.43090
Ar 22.73122 15.21077 21.23658
Ar 0.37885 11.09033 19.95793
Ar 2.25068 13.77703 16.66730
Ar 0.07048 17.03010 1.63428
Ar 22.20011 19.61620 3.77731
Ar 2.33386 18.03950 4.10254
Ar 1.98328 20.12319 0.35486
Ar 20.58488 16.60694 7.88200
Ar 21.44639 19.87696 7.60648
Ar 2.83063 18.37431 7.70599
Ar 2.96295 21.25222 4.72736
Ar 21.63973 17.16014 11.27403
Ar 0.32554 19.44549 14.46207
Ar 3.12139 17.16832 14.19446
Ar 1.38617 19.51769 11.26830
Ar 22.69458 17.17502 17.55633
Ar 22.43805 19.41727 20.46792
Ar 3.01207 17.74787 20.18369
Ar 3.15466 19.48981 16.46100
Ar 5.39814 0.81753 21.93883
Ar 6.29157 2.38519 2.12345
Ar 9.70173 1.63575 3.76697
Ar 8.87310 2.08829 21.71634
Ar 5.24548 0.83474 5.56469
Ar 4.97139 2.32130 8.70694
Ar 7.72121 0.28080 8.27272
Ar 6.70142 3.94527 5.73692
Ar 5.58567 22.27270 11.15767
Ar 6.28491 1.96411 14.78778
Ar 7.98425 21.89877 13.79610
Ar 7.29485 2.37060 11.16104
Ar 5.86164 21.80942 16.92063
Ar 5.64661 2.11532 18.70225
Ar 7.98901 21.53135 19.75915
Ar 9.05623 0.78544 16.68417
Ar 6.12022 4.22303 22.10223
Ar 7.12008 9.52510 1.37603
Ar 8.05912 7.27892 4.98478
Ar 9.31676 11.18034 21.92742
Ar 4.53112 6.44502 3.31550
Ar 4.74753 9.01900 11.45090
Ar 7.85893 5.92120 10.02717
Ar 6.58354 8.90735 8.29719
Ar 4.31091 5.56954 11.58313
Ar 4.97168 8.40764 15.03220
Ar 8.55937 5.58661 13.91879
Ar 7.76729 9.52911 13.41724
Ar 7.42511 4.62372 17.03803
Ar 6.87185 7.82418 20.23508
Ar 9.63488 5.25842 20.08868
Ar 8.14439 8.69544 17.23486
Ar 7.52758 13.10205 1.59418
Ar 5.70382 14.33966 4.20360
Ar 6.64062 10.68448 5.20074
Ar 11.53408 13.36144 0.93847
Ar 3.73376 12.10387 6.87581
Ar 5.66306 14.99238 7.62083
Ar 8.25973 12.18352 8.10633
Ar 10.08300 13.69391 4.56208
Ar 5.36413 12.08224 9.89189
Ar 4.83297 12.84320 13.65725
Ar 8.27376 12.97726 12.42057
Ar 8.51232 15.28590 9.94377
Ar 6.30637 14.23693 17.55582
Ar 6.99128 14.87493 21.04154
Ar 9.76312 12.88318 15.73642
Ar 9.29905 16.48257 17.84930
Ar 4.53358 16.11609 1.09343
Ar 5.61636 21.51550 2.40974
Ar 8.42767 16.64339 1.96052
Ar 8.63416 21.02853 0.66731
Ar 5.67654 18.70545 5.71076
Ar 6.47913 18.80769 9.37942
Ar 8.57265 17.66322 6.88566
Ar 7.96038 21.04337 5.18886
Ar 4.88098 15.64251 11.01429
Ar 6.25720 18.77249 12.90996
Ar 7.12654 16.28010 14.70533
Ar 9.64380 18.25481 11.50683
Ar 6.38546 18.27424 18.30469
Ar 5.54563 19.00092 22.15058
Ar 8.64280 17.97932 21.37711
Ar 9.40589 19.05386 15.30429
Ar 11.83968 0.55662 0.52266
Ar 10.71990 4.66863 5.74001
Ar 13.81419 1.00560 3.27628
Ar 14.27760 3.38466 0.21912
Ar 10.91279 22.26250 6.79797
Ar 9.79297 3.00562 8.75738
Ar 13.92453 2.85045 7.03473
Ar 14.26850 4.40969 3.62653
Ar 10.15111 22.49168 10.85890
Ar 10.64822 2.20566 13.95983
Ar 14.18964 0.54723 13.67005
Ar 12.75193 2.60406 11.17462
Ar 12.36523 21.90023 16.31353
Ar 11.78581 1.17457 19.62773
Ar 14.84229 21.35623 19.31037
Ar 14.00146 2.02386 17.21691
Ar 8.71997 5.62385 1.60936
Ar 10.42912 9.79964 2.26710
Ar 12.44747 7.58724 4.52568
Ar 11.85474 6.82588 0.63530
Ar 10.27064 7.97205 7.91152
Ar 10.85217 10.62434 11.20470
Ar 12.95552 5.69966 8.64439
Ar 14.51935 8.71926 7.60469
Ar 11.24285 5.74579 11.81479
Ar 12.02043 7.66809 14.84576
Ar 14.00426 3.95398 14.25351
Ar 14.94702 7.07261 11.03674
Ar 11.02994 4.82503 16.71835
Ar 11.22975 8.47790 19.10747
Ar 13.88563 5.62860 20.13968
Ar 15.17493 6.61260 16.92854
Ar 13.76523 10.46621 1.00035
Ar 13.36591 14.01105 4.97237
Ar 14.68260 10.47621 4.14642
Ar 13.90088 14.47717 21.09814
Ar 11.30916 11.12456 6.46259
Ar 11.29611 15.37976 8.19964
Ar 14.57817 10.63349 11.01765
Ar 14.31081 12.35897 7.93092
Ar 11.65598 13.97313 11.94819
Ar 11.16212 16.25259 14.44261
Ar 15.36896 9.03431 14.03225
Ar 14.94501 14.30971 10.58216
Ar 13.26867 12.61988 15.04561
Ar 10.49951 14.72547 20.87339
Ar 11.96885 11.96297 19.32975
Ar 13.73055 15.43872 17.22737
Ar 12.01382 17.60214 0.95035
Ar 11.27522 20.41757 2.92795
Ar 15.80118 16.45261 4.87104
Ar 14.70902 19.96417 22.49817
Ar 11.92808 17.35570 4.62269
Ar 11.51177 18.88097 8.10087
Ar 15.10832 18.31913 7.85226
Ar 13.83091 20.85368 5.56185
Ar 13.04826 17.31278 11.13596
Ar 12.87411 19.91797 13.56992
Ar 15.20011 16.86450 13.78406
Ar 13.91648 22.32602 9.49486
Ar 12.10094 18.55456 17.79826
Ar 11.44171 20.13508 20.74467
Ar 14.81823 17.48151 19.77007
Ar 15.27905 19.44623 16.15997
Ar 16.86273 0.64929 0.63512
Ar 17.34613 3.74038 2.09863
Ar 20.91696 1.37879 2.28834
Ar 17.89697 4.74632 21.46784
Ar 18.97168 22.38542 4.74136
Ar 17.35975 2.54337 7.00505
Ar 21.12003 1.22293 8.41898
Ar 20.00600 4.59638 4.34465
Ar 17.03191 0.03832 11.05070
Ar 17.33395 1.74116 14.16909
Ar 19.97414 22.55193 14.57389
Ar 20.18505 2.17993 11.89307
Ar 17.62320 0.14956 17.04252
Ar 16.68773 1.95050 19.92601
Ar 20.37422 0.38371 21.62849
Ar 20.60601 1.62839 17.95098
Ar 15.94349 7.56708 0.77483
Ar 17.94842 10.41667 2.03879
Ar 20.29998 6.36753 1.52940
Ar 18.38946 8.77292 20.96434
Ar 16.51320 7.04433 4.85549
Ar 19.07255 6.19570 7.77242
Ar 22.53564 5.63439 7.76203
Ar 20.45506 8.43526 4.79066
Ar 16.16279 3.53216 10.34949
Ar 17.21248 5.47529 13.67382
Ar 20.33084 3.77457 14.85517
Ar 20.11163 5.92706 11.13619
Ar 18.18993 4.60113 17.94082
Ar 14.59564 8.85749 20.39534
Ar 21.21304 5.13384 19.59003
Ar 19.24750 8.22973 17.55351
Ar 16.20656 11.66323 21.64452
Ar 16.72170 13.79146 2.84427
Ar 22.12619 12.67582 0.78990
Ar 19.05853 14.33595 0.15342
Ar 17.59552 10.01983 7.47205
Ar 18.14448 12.20416 10.53480
Ar 21.00446 9.65852 8.65995
Ar 19.77766 12.51693 4.68779
Ar 18.05687 8.82830 10.87695
Ar 17.30598 13.84468 14.66248
Ar 18.50671 9.98059 14.30071
Ar 20.23214 13.70949 12.99658
Ar 16.45964 10.41151 17.39433
Ar 16.93872 13.77576 18.58738
Ar 19.69147 11.99866 20.41697
Ar 21.47626 13.78676 17.41001
Ar 16.05475 16.29472 0.09894
Ar 16.13197 20.65161 2.83181
Ar 20.30622 15.90069 4.26319
Ar 19.91073 19.43358 0.75978
Ar 17.95331 14.43616 6.94506
Ar 16.50944 22.03861 7.51707
Ar 18.01233 19.46086 9.78119
Ar 18.22746 18.83762 5.92898
Ar 17.86576 15.88121 11.51685
Ar 17.67007 20.26381 13.40600
Ar 19.88948 16.93062 14.58135
Ar 20.59343 20.72197 11.57955
Ar 17.43596 17.13484 17.40095
Ar 18.17946 19.98609 19.98146
Ar 19.59733 16.61122 19.75749
Ar 20.27337 20.10846 17.33924
256
frame 91
Ar 1.24096 0.64293 21.24198
Ar 21.99694 3.80964 0.04430
Ar 2.08669 1.93313 2.05327
Ar 2.58486 4.97499 0.70254
Ar 22.59542 0.26194 5.31669
Ar 1.48842 3.11747 10.06376
Ar 1.85319 21.47379 8.23192
Ar 1.70489 2.75781 6.34624
Ar 0.25488 0.12151 11.19051
Ar 0.08886 1.19061 14.60958
Ar 2.99973 21.50619 13.76467
Ar 3.34107 2.36694 13.09075
Ar 0.24314 21.96258 17.65404
Ar 1.64199 3.92047 20.15967
Ar 3.60612 21.51455 19.54378
Ar 2.93030 1.48194 16.56353
Ar 0.17902 7.83947 21.31937
Ar 1.03048 8.34213 2.01248
Ar 4.46595 7.85068 0.11695
Ar 5.69621 11.33844 21.20009
Ar 0.65474 5.20141 3.67964
Ar 1.02061 7.51527 10.33622
Ar 4.50488 6.03713 7.42273
Ar 1.76183 8.53213 7.10441
Ar 0.71912 5.08886 12.89489
Ar 20.85292 7.21012 14.70611
Ar 3.72219 5.18422 15.05104
Ar 1.35432 8.80511 13.68456
Ar 0.44431 4.23027 16.72792
Ar 0.12781 7.74937 17.49155
Ar 3.70141 6.58656 19.42604
Ar 3.20812 10.63716 17.91966
Ar 2.50577 11.04822 0.06669
Ar 1.97375 13.99578 2.81230
Ar 3.66768 10.10538 3.27250
Ar 3.63934 14.07291 20.02158
Ar 0.20998 11.44966 5.58078
Ar 21.01106 13.10537 8.78577
Ar 1.82244 11.10801 9.49458
Ar 2.01531 14.97285 6.49724
Ar 21.32325 10.35246 12.08356
Ar 22.80349 15.36975 14.35392
Ar 1.55588 12.52713 12.78054
Ar 1.40059 15.12898 10.25491
Ar 21.67263 10.88456 15.50209
Ar 22.74753 15.31001 21.30976
Ar 0.31019 11.03218 19.96953
Ar 2.20702 13.69798 16.56107
Ar 22.81754 17.04380 1.63965
Ar 22.12322 19.69117 3.80207
Ar 2.35463 18.07808 4.01022
Ar 1.92981 20.23875 0.49032
Ar 20.63721 16.64361 7.88560
Ar 21.46354 19.88872 7.67912
Ar 2.82082 18.25096 7.81483
Ar 2.93471 21.20939 4.77591
Ar 21.66352 17.15703 11.21978
Ar 0.35753 19.48199 14.33873
Ar 3.17249 17.08832 14.10028
Ar 1.52960 19.56957 11.24285
Ar 22.77487 17.12225 17.56873
Ar 22.38489 19.44276 20.59802
Ar 3.01155 17.69681 20.17815
Ar 3.14683 19.52278 16.53096
Ar 5.35277 0.89334 21.84065
Ar 6.32557 2.50051 2.19539
Ar 9.61314 1.80380 3.63748
Ar 8.94912 2.11586 21.85712
Ar 5.17017 0.85271 5.62741
Ar 5.10832 2.34995 8.65392
Ar 7.66321 0.18364 8.28693
Ar 6.75450 3.92216 5.78262
Ar 5.57969 22.18595 11.12552
Ar 6.33466 2.09322 14.81304
Ar 7.99303 21.83469 13.86356
Ar 7.35113 2.41564 11.19523
Ar 5.85527 21.83492 16.97049
Ar 5.66604 2.15385 18.77680
Ar 8.01507 21.51914 19.72457
Ar 9.15985 0.79551 16.70689
Ar 6.16723 4.19812 22.07274
Ar 7.10755 9.56021 1.36464
Ar 8.00236 7.35231 4.98308
Ar 9.35592 11.24176 21.96721
Ar 4.56921 6.42060 3.34487
Ar 4.77231 9.00638 11.57304
Ar 7.82050 5.95765 9.94378
Ar 6.56775 8.90377 8.36119
Ar 4.24832 5.56002 11.65283
Ar 4.89696 8.30322 15.13357
Ar 8.65725 5.67061 13.95243
Ar 7.88863 9.45289 13.35206
Ar 7.39780 4.61381 17.06553
Ar 6.81515 7.76372 20.17884
Ar 9.60237 5.25000 20.19745
Ar 7.97171 8.79156 17.23740
Ar 7.58072 13.20033 1.65252
Ar 5.74373 14.34138 4.19030
Ar 6.59223 10.67661 5.19841
Ar 11.59029 13.33497 0.88140
Ar 3.76659 12.02623 6.91170
Ar 5.67619 15.08105 7.53118
Ar 8.32101 12.27176 8.04436
Ar 10.16585 13.71746 4.53932
Ar 5.35140 12.14410 9.84997
Ar 4.76692 12.69764 13.58273
Ar 8.20218 13.04110 12.39520
Ar 8.49611 15.36609 9.98004
Ar 6.32178 14.10607 17.58076
Ar 7.01573 14.91222 21.01843
Ar 9.76114 12.91818 15.70962
Ar 9.18796 16.43658 17.80826
Ar 4.46195 16.13346 0.96969
Ar 5.55652 21.49600 2.48992
Ar 8.40151 16.64968 1.94901
Ar 8.67293 20.95368 0.57763
Ar 5.69835 18.76789 5.64714
Ar 6.46760 18.64661 9.29995
Ar 8.59904 17.63982 6.80956
Ar 8.03005 21.00497 5.19770
Ar 4.77512 15.74688 11.06659
Ar 6.29917 18.73845 12.75960
Ar 7.21813 16.22637 14.76746
Ar 9.60553 18.13961 11.56342
Ar 6.56114 18.31334 18.33993
Ar 5.60250 19.00573 22.22480
Ar 8.56057 17.97082 21.31364
Ar 9.46548 19.08145 15.28668
Ar 11.79419 0.57904 0.40330
Ar 10.67833 4.67895 5.90687
Ar 13.84377 0.97208 3.36144
Ar 14.35767 3.34150 0.18902
Ar 10.85083 22.25308 6.84259
Ar 9.79934 2.92067 8.70215
Ar 13.98157 2.76696 7.03490
Ar 14.18469 4.42815 3.63660
Ar 10.13583 22.55456 10.83004
Ar 10.59035 2.23983 13.92044
Ar 14.23289 0.57272 13.60264
Ar 12.70934 2.59945 11.14193
Ar 12.28154 21.96210 16.27744
Ar 11.77318 1.13557 19.65397
Ar 14.80032 21.36427 19.32301
Ar 13.99141 2.04626 17.19180
Ar 8.69318 5.63372 1.64176
Ar 10.43241 9.75242 2.30725
Ar 12.58669 7.52230 4.44298
Ar 11.78613 6.87074 0.52899
Ar 10.40691 8.01094 7.87838
Ar 10.77883 10.52136 11.18760
Ar 12.82061 5.72537 8.58197
Ar 14.54556 8.80510 7.62371
Ar 11.22916 5.75065 11.80237
Ar 11.93830 7.69189 14.78168
Ar 13.96369 3.90648 14.18238
Ar 14.88103 7.14003 10.94382
Ar 10.98841 4.76826 16.67139
Ar 11.24217 8.60606 19.11441
Ar 13.92230 5.55311 20.11698
Ar 15.22348 6.51037 16.92252
Ar 13.75060 10.51213 1.00226
Ar 13.41231 14.02124 4.96431
Ar 14.73297 10.51032 4.19428
Ar 13.88843 14.53843 21.14282
Ar 11.30526 11.19873 6.45538
Ar 11.36973 15.39314 8.23928
Ar 14.57958 10.57729 11.09503
Ar 14.39100 12.44227 7.93463
Ar 11.56198 14.02370 11.89512
Ar 11.17634 16.28500 14.38106
Ar 15.41519 8.94109 14.04107
Ar 14.93842 14.49691 10.74254
Ar 13.28092 12.66424 14.96934
Ar 10.40138 14.80642 20.92483
Ar 11.91722 11.95491 19.31136
Ar 13.84918 15.53097 17.19474
Ar 12.02313 17.63001 1.02658
Ar 11.26783 20.50769 2.87580
Ar 15.76586 16.35503 4.85152
Ar 14.73935 19.93111 22.59907
Ar 11.92604 17.26061 4.72969
Ar 11.51162 18.86482 8.03833
Ar 15.11863 18.33950 7.82324
Ar 13.87617 20.67922 5.48641
Ar 13.15852 17.24917 11.11559
Ar 12.82567 19.94820 13.50685
Ar 15.12892 16.76970 13.76305
Ar 13.87500 22.26013 9.54073
Ar 12.08589 18.55327 17.79584
Ar 11.45202 20.16115 20.82791
Ar 14.81018 17.47772 19.81953
Ar 15.35167 19.46507 16.12922
Ar 16.83498 0.57597 0.66661
Ar 17.41152 3.81315 2.25616
Ar 20.94215 1.39933 2.27627
Ar 17.90482 4.84157 21.45642
Ar 18.98387 22.33894 4.66087
Ar 17.40528 2.58644 6.91302
Ar 21.04058 1.30492 8.29148
Ar 20.05763 4.54398 4.39410
Ar 17.03469 0.05310 10.96359
Ar 17.27483 1.77612 14.20190
Ar 19.95777 22.50797 14.56562
Ar 20.09407 2.12810 11.83425
Ar 17.72421 0.14320 17.01473
Ar 16.81501 1.98435 19.91553
Ar 20.28978 0.28888 21.64948
Ar 20.62056 1.59422 17.98296
Ar 15.89555 7.58917 0.69526
Ar 17.99576 10.41755 1.92901
Ar 20.36332 6.45365 1.42697
Ar 18.31788 8.77758 20.98329
Ar 16.61005 7.02065 4.77935
Ar 19.18852 6.13220 7.84027
Ar 22.59080 5.60471 7.69367
Ar 20.42223 8.55072 4.81134
Ar 16.03692 3.49584 10.26993
Ar 17.17368 5.52888 13.79139
Ar 20.34766 3.80885 14.86417
Ar 20.06741 6.01907 11.14408
Ar 18.17641 4.62404 17.87715
Ar 14.61669 8.91922 20.34259
Ar 21.20439 5.15903 19.60402
Ar 19.33425 8.21604 17.55938
Ar 16.17190 11.61878 21.88856
Ar 16.80701 13.76074 2.93986
Ar 22.13245 12.66882 0.74037
Ar 19.12171 14.38248 0.19624
Ar 17.60949 9.94988 7.42131
Ar 18.24312 12.27321 10.61317
Ar 21.06626 9.50255 8.61702
Ar 19.90079 12.37828 4.64003
Ar 18.01672 8.89672 10.79713
Ar 17.23290 13.78721 14.64209
Ar 18.52721 10.04829 14.46306
Ar 20.30093 13.55755 13.10734
Ar 16.45073 10.50839 17.43743
Ar 16.91789 13.71851 18.64382
Ar 19.75069 11.99725 20.29551
Ar 21.45480 13.79694 17.40608
Ar 16.16728 16.41071 0.14144
Ar 16.07690 20.60046 2.82478
Ar 20.29812 15.92879 4.28650
Ar 19.94654 19.52127 0.72248
Ar 17.85575 14.39852 6.99747
Ar 16.46641 22.01390 7.48978
Ar 17.98850 19.37298 9.83418
Ar 18.28725 18.81022 6.01994
Ar 17.86839 15.90041 11.47409
Ar 17.59930 20.22925 13.43631
Ar 19.85719 16.94151 14.53827
Ar 20.64892 20.74784 11.58708
Ar 17.41700 16.98560 17.47289
Ar 18.10523 19.85126 19.81987
Ar 19.70137 16.62309 19.85498
Ar 20.25047 20.14547 17.35786
256
frame 92
Ar 1.19807 0.60138 21.22547
Ar 22.02948 3.80112 0.02089
Ar 2.04052 1.95728 1.96136
Ar 2.61452 5.06809 0.67884
Ar 22.66296 0.23218 5.37561
Ar 1.36896 3.25153 10.03783
Ar 1.81590 21.38757 8.14695
Ar 1.54421 2.75662 6.44545
Ar 0.25322 0.10907 11.16450
Ar 0.05366 1.16811 14.50161
Ar 3.09912 21.48595 13.80145
Ar 3.43312 2.37155 13.09610
Ar 0.18733 21.95254 17.69832
Ar 1.63980 4.01495 20.15655
Ar 3.55217 21.49975 19.49942
Ar 2.95619 1.57984 16.71699
Ar 0.15722 7.89665 21.26582
Ar 1.08708 8.29441 2.02345
Ar 4.23399 7.94098 0.12717
Ar 5.77764 11.28755 21.16971
Ar 0.61717 5.11759 3.55710
Ar 1.02168 7.39473 10.42259
Ar 4.50426 5.95274 7.50060
Ar 1.68396 8.55264 7.20154
Ar 0.81459 5.05478 12.85014
Ar 20.86424 7.17418 14.63325
Ar 3.77510 5.10056 15.05888
Ar 1.32801 8.85143 13.68787
Ar 0.42464 4.18958 16.68084
Ar 0.08149 7.79820 17.38694
Ar 3.65356 6.56193 19.42017
Ar 3.29915 10.59529 18.03466
Ar 2.59013 10.95914 0.11213
Ar 1.90183 13.93805 2.87794
Ar 3.62351 10.10382 3.27638
Ar 3.62635 14.01825 20.01195
Ar 0.13702 11.43597 5.65501
Ar 21.02012 13.14327 8.80321
Ar 1.67537 11.07780 9.54792
Ar 1.98532 15.02615 6.47512
Ar 21.30122 10.39864 12.06147
Ar 0.05639 15.45046 14.27410
Ar 1.59507 12.45036 12.86014
Ar 1.40806 15.09325 10.18959
Ar 21.72951 10.92026 15.59730
Ar 22.77586 15.41183 21.36201
Ar 0.24319 10.99662 19.96867
Ar 2.17071 13.63110 16.44973
Ar 22.73294 17.04099 1.62394
Ar 22.02035 19.79164 3.84135
Ar 2.39860 18.04702 3.91323
Ar 1.88327 20.35452 0.63228
Ar 20.68247 16.64546 7.88707
Ar 21.48682 19.94187 7.75293
Ar 2.81636 18.09960 7.93070
Ar 2.88600 21.20316 4.83524
Ar 21.65919 17.16716 11.18763
Ar 0.31945 19.49961 14.26304
Ar 3.22878 16.98785 13.98949
Ar 1.69514 19.60022 11.16674
Ar 0.03864 17.08489 17.58451
Ar 22.32792 19.46909 20.72310
Ar 2.99911 17.64645 20.16427
Ar 3.14119 19.54642 16.65113
Ar 5.29389 0.91774 21.78852
Ar 6.35299 2.60490 2.29696
Ar 9.53155 1.96504 3.51051
Ar 9.01882 2.12966 21.99813
Ar 5.09848 0.85324 5.65860
Ar 5.18727 2.41939 8.62060
Ar 7.61112 0.04984 8.28503
Ar 6.83775 3.90771 5.81694
Ar 5.55564 22.08430 11.09395
Ar 6.39009 2.22320 14.83854
Ar 7.99742 21.78444 13.90987
Ar 7.42870 2.47749 11.27610
Ar 5.86065 21.86134 16.98290
Ar 5.68813 2.20144 18.82918
Ar 8.04931 21.51020 19.70479
Ar 9.25302 0.81137 16.76913
Ar 6.19798 4.23705 22.01395
Ar 7.09178 9.59603 1.37315
Ar 7.94967 7.42309 4.97949
Ar 9.39542 11.29487 21.98111
Ar 4.61479 6.39034 3.39657
Ar 4.78220 9.00854 11.68993
Ar 7.78332 5.98532 9.86515
Ar 6.55311 8.90970 8.42205
Ar 4.19261 5.54011 11.69166
Ar 4.82978 8.23700 15.24669
Ar 8.72083 5.75743 13.99253
Ar 8.02174 9.37579 13.28955
Ar 7.36931 4.62851 17.10775
Ar 6.77600 7.69949 20.16902
Ar 9.57408 5.24754 20.30593
Ar 7.81760 8.89972 17.19478
Ar 7.65445 13.27677 1.67721
Ar 5.75660 14.35334 4.18592
Ar 6.56342 10.67873 5.18399
Ar 11.65616 13.31143 0.87420
Ar 3.80444 11.93275 6.88265
Ar 5.69242 15.18781 7.46455
Ar 8.39374 12.36494 7.97890
Ar 10.17209 13.76690 4.48732
Ar 5.34694 12.21772 9.85774
Ar 4.74623 12.55413 13.52632
Ar 8.11394 13.08289 12.38985
Ar 8.43586 15.44989 9.99851
Ar 6.33402 13.96483 17.59520
Ar 7.00326 14.93669 21.00800
Ar 9.75031 12.95714 15.69110
Ar 9.12808 16.34518 17.76601
Ar 4.38460 16.13346 0.85240
Ar 5.50149 21.47822 2.55319
Ar 8.37727 16.66735 1.94258
Ar 8.70354 20.88982 0.48010
Ar 5.63724 18.80064 5.56673
Ar 6.44091 18.49640 9.21889
Ar 8.65713 17.57400 6.71786
Ar 8.13620 21.00500 5.18406
Ar 4.68603 15.84820 11.12225
Ar 6.31432 18.74432 12.61038
Ar 7.31654 16.13347 14.83849
Ar 9.58601 18.05697 11.63009
Ar 6.67601 18.38603 18.37557
Ar 5.61812 19.05842 22.31179
Ar 8.55009 17.96093 21.23614
Ar 9.51833 19.12726 15.28479
Ar 11.75756 0.58490 0.29268
Ar 10.63568 4.69882 6.03959
Ar 13.87708 0.91972 3.45298
Ar 14.43634 3.29728 0.15000
Ar 10.81106 22.26176 6.89224
Ar 9.82200 2.83843 8.66093
Ar 14.01157 2.66480 7.03309
Ar 14.09223 4.46084 3.65660
Ar 10.13118 22.61274 10.80944
Ar 10.52737 2.27810 13.87102
Ar 14.24811 0.54438 13.52253
Ar 12.65981 2.58821 11.07102
Ar 12.19025 22.01332 16.25962
Ar 11.74523 1.08869 19.68621
Ar 14.75102 21.38432 19.32198
Ar 14.01213 2.08564 17.16366
Ar 8.64971 5.63773 1.68082
Ar 10.44798 9.71279 2.36953
Ar 12.71973 7.46863 4.36567
Ar 11.74220 6.91729 0.41074
Ar 10.51794 8.06656 7.84426
Ar 10.70602 10.40948 11.16276
Ar 12.69812 5.72343 8.51700
Ar 14.51404 8.86974 7.64143
Ar 11.23657 5.76267 11.76730
Ar 11.85849 7.72631 14.72000
Ar 13.91866 3.90742 14.11576
Ar 14.82235 7.17957 10.86783
Ar 10.96171 4.70166 16.63436
Ar 11.24163 8.69918 19.11888
Ar 13.94799 5.44953 20.09812
Ar 15.26711 6.41613 16.90728
Ar 13.68907 10.53356 0.99181
Ar 13.47996 13.99831 4.94963
Ar 14.80184 10.54916 4.28755
Ar 13.87420 14.55529 21.18757
Ar 11.32528 11.24083 6.45555
Ar 11.48159 15.38043 8.25529
Ar 14.57673 10.55703 11.16034
Ar 14.48218 12.51992 7.93704
Ar 11.47541 14.05684 11.81720
Ar 11.20768 16.31337 14.34207
Ar 15.42621 8.82980 14.06676
Ar 14.93612 14.62141 10.89492
Ar 13.30743 12.70302 14.88653
Ar 10.30656 14.91013 20.94981
Ar 11.87973 11.96843 19.28586
Ar 13.96387 15.59801 17.13955
Ar 12.03474 17.63784 1.08328
Ar 11.26755 20.61523 2.84398
Ar 15.74798 16.32351 4.83361
Ar 14.75945 19.89526 22.68391
Ar 11.91951 17.17247 4.83918
Ar 11.53456 18.88222 7.99680
Ar 15.12715 18.34822 7.81228
Ar 13.89792 20.50342 5.41598
Ar 13.21731 17.24068 11.05701
Ar 12.77125 19.96683 13.42586
Ar 15.07833 16.66593 13.77948
Ar 13.77638 22.19071 9.60909
Ar 12.06972 18.56096 17.77530
Ar 11.46266 20.20123 20.92727
Ar 14.81881 17.53010 19.87932
Ar 15.41284 19.50344 16.11191
Ar 16.81029 0.49864 0.69067
Ar 17.47875 3.88782 2.40356
Ar 20.96159 1.41300 2.27243
Ar 17.91896 4.96333 21.47013
Ar 18.99037 22.28874 4.58602
Ar 17.48685 2.64033 6.81240
Ar 20.95325 1.39170 8.17222
Ar 20.11162 4.48455 4.47721
Ar 17.05573 0.06878 10.88391
Ar 17.22125 1.87638 14.19827
Ar 19.96359 22.44019 14.54937
Ar 20.00257 2.07588 11.75314
Ar 17.77097 0.08868 17.04761
Ar 16.92539 1.99294 19.90911
Ar 20.20171 0.19116 21.66150
Ar 20.65249 1.59031 18.02684
Ar 15.84710 7.59372 0.62532
Ar 18.05242 10.41018 1.82679
Ar 20.41099 6.57555 1.32141
Ar 18.24993 8.76801 21.00948
Ar 16.71245 7.00094 4.70279
Ar 19.26756 6.07743 7.87987
Ar 22.65242 5.55722 7.61108
Ar 20.38991 8.66163 4.83399
Ar 15.92123 3.47053 10.19444
Ar 17.14572 5.59089 13.90409
Ar 20.34702 3.82924 14.88313
Ar 20.04348 6.09941 11.18268
Ar 18.15807 4.64344 17.78784
Ar 14.63627 8.99377 20.28158
Ar 21.18432 5.19144 19.61642
Ar 19.40678 8.20687 17.59134
Ar 16.18400 11.62041 22.10059
Ar 16.89369 13.70434 3.02329
Ar 22.13694 12.63933 0.70103
Ar 19.18311 14.43586 0.23542
Ar 17.67493 9.90889 7.34995
Ar 18.30392 12.35741 10.68888
Ar 21.13460 9.33148 8.56138
Ar 19.99397 12.23471 4.58345
Ar 17.97433 8.93917 10.73159
Ar 17.13558 13.72839 14.63694
Ar 18.56017 10.13269 14.61166
Ar 20.37277 13.39643 13.20700
Ar 16.43114 10.58808 17.47782
Ar 16.89480 13.67240 18.71572
Ar 19.80276 12.00415 20.17193
Ar 21.41707 13.81471 17.41857
Ar 16.29054 16.54237 0.20600
Ar 16.04975 20.54559 2.83784
Ar 20.28852 15.96722 4.30252
Ar 19.97767 19.61000 0.68235
Ar 17.75330 14.35249 7.06085
Ar 16.46941 21.97705 7.43197
Ar 17.95705 19.27384 9.87401
Ar 18.34850 18.78902 6.10408
Ar 17.91711 15.94452 11.43287
Ar 17.51026 20.17578 13.46786
Ar 19.78585 16.98220 14.50489
Ar 20.69226 20.74431 11.59340
Ar 17.38796 16.84238 17.49437
Ar 17.99127 19.72156 19.70865
Ar 19.83579 16.62209 19.98543
Ar 20.23495 20.15718 17.32844
256
frame 93
Ar 1.13998 0.56234 21.22010
Ar 22.07173 3.78556 22.80919
Ar 1.99231 1.94785 1.88346
Ar 2.64124 5.15004 0.63244
Ar 22.69447 0.14578 5.39711
Ar 1.26176 3.38158 9.98736
Ar 1.78723 21.34799 8.06947
Ar 1.44101 2.79285 6.55460
Ar 0.29692 0.12481 11.12414
Ar 0.06278 1.17067 14.40103
Ar 3.22313 21.50332 13.83205
Ar 3.49972 2.33180 13.06594
Ar 0.19100 21.94420 17.74415
Ar 1.63182 4.07321 20.15421
Ar 3.49565 21.47821 19.48151
Ar 2.97915 1.66751 16.86791
Ar 0.14118 7.91655 21.23016
Ar 1.10443 8.23103 2.02793
Ar 4.02850 8.03694 0.11314
Ar 5.86185 11.23396 21.13361
Ar 0.58225 5.02727 3.45105
Ar 1.02436 7.29503 10.50337
Ar 4.48841 5.87557 7.58625
Ar 1.62718 8.56673 7.25942
Ar 0.88099 5.01115 12.86650
Ar 20.88079 7.15917 14.52382
Ar 3.81685 4.99379 15.12020
Ar 1.31515 8.88990 13.70349
Ar 0.42237 4.15525 16.63938
Ar 0.06887 7.85361 17.29954
Ar 3.60331 6.56375 19.39335
Ar 3.40103 10.54074 18.15131
Ar 2.65469 10.91151 0.12961
Ar 1.83795 13.88013 2.94819
Ar 3.60633 10.11961 3.31622
Ar 3.59221 13.95992 20.00744
Ar 0.12687 11.41465 5.75068
Ar 21.06005 13.18035 8.80631
Ar 1.51395 11.05948 9.62412
Ar 1.94381 15.07033 6.44305
Ar 21.28841 10.40281 12.01009
Ar 0.15485 15.54333 14.19196
Ar 1.55675 12.37303 12.93066
Ar 1.41478 15.03961 10.11348
Ar 21.82045 10.94312 15.70356
Ar 0.00493 15.50358 21.39380
Ar 0.19776 10.99417 19.94905
Ar 2.14420 13.56663 16.34201
Ar 22.64080 17.03470 1.60415
Ar 21.90784 19.89839 3.88855
Ar 2.45186 17.96487 3.81077
Ar 1.84226 20.46924 0.77986
Ar 20.72062 16.61606 7.88134
Ar 21.50358 20.02432 7.82801
Ar 2.82212 17.93620 8.05170
Ar 2.81845 21.21644 4.89052
Ar 21.63841 17.19224 11.17915
Ar 0.23477 19.50234 14.22401
Ar 3.28272 16.89879 13.90178
Ar 1.87408 19.60664 11.06555
Ar 0.13216 17.06414 17.60386
Ar 22.27471 19.49585 20.83648
Ar 2.98129 17.60116 20.14735
Ar 3.12790 19.53932 16.78308
Ar 5.22158 0.88934 21.80587
Ar 6.35376 2.70373 2.40410
Ar 9.47426 2.11745 3.39180
Ar 9.05443 2.14383 22.13326
Ar 5.03359 0.84152 5.65577
Ar 5.22186 2.52498 8.62526
Ar 7.56123 22.71550 8.27299
Ar 6.94849 3.90217 5.83880
Ar 5.52015 21.98117 11.06407
Ar 6.45738 2.33840 14.86345
Ar 7.98873 21.76628 13.93155
Ar 7.51507 2.54368 11.38643
Ar 5.87852 21.89421 16.95862
Ar 5.71894 2.26095 18.84522
Ar 8.09366 21.50916 19.69998
Ar 9.31323 0.84365 16.86254
Ar 6.21442 4.32479 21.93844
Ar 7.06416 9.62498 1.39443
Ar 7.90533 7.48448 4.97626
Ar 9.43250 11.33536 21.97290
Ar 4.66618 6.35709 3.46182
Ar 4.77946 9.02652 11.79907
Ar 7.75304 5.99541 9.79412
Ar 6.53627 8.93457 8.47445
Ar 4.15327 5.51958 11.68994
Ar 4.77122 8.21496 15.36561
Ar 8.74579 5.84270 14.04116
Ar 8.15191 9.29763 13.23755
Ar 7.34775 4.68184 17.16442
Ar 6.75493 7.63401 20.20091
Ar 9.55243 5.25188 20.40943
Ar 7.68414 9.02057 17.12112
Ar 7.74825 13.32103 1.66394
Ar 5.73979 14.37352 4.18447
Ar 6.56041 10.69182 5.15725
Ar 11.72016 13.30713 0.90905
Ar 3.82296 11.83731 6.81399
Ar 5.70566 15.30561 7.43018
Ar 8.46229 12.46404 7.91684
Ar 10.11903 13.83822 4.41297
Ar 5.35110 12.30028 9.90360
Ar 4.79299 12.41291 13.49557
Ar 8.01644 13.10136 12.40274
Ar 8.34313 15.51498 9.97737
Ar 6.34237 13.81142 17.59998
Ar 6.93221 14.94216 21.00911
Ar 9.73351 12.99909 15.67902
Ar 9.13615 16.20953 17.73071
Ar 4.29891 16.11224 0.74401
Ar 5.45775 21.46293 2.59751
Ar 8.35630 16.70538 1.93962
Ar 8.72198 20.84096 0.38529
Ar 5.52883 18.81123 5.47995
Ar 6.40275 18.36225 9.12334
Ar 8.72514 17.47657 6.60753
Ar 8.25362 21.02220 5.14363
Ar 4.62618 15.93083 11.15383
Ar 6.30747 18.76824 12.49575
Ar 7.40471 16.02979 14.88463
Ar 9.60125 18.02287 11.71134
Ar 6.71715 18.49765 18.40064
Ar 5.59685 19.15243 22.40492
Ar 8.60524 17.96152 21.15845
Ar 9.56698 19.17479 15.30427
Ar 11.75880 0.56246 0.22033
Ar 10.58317 4.73466 6.10235
Ar 13.91060 0.85418 3.54381
Ar 14.51526 3.25212 0.11069
Ar 10.80988 22.29091 6.94861
Ar 9.84612 2.74395 8.64700
Ar 14.01700 2.55025 7.03153
Ar 14.00611 4.47631 3.67525
Ar 10.13453 22.66245 10.80059
Ar 10.45812 2.31730 13.81257
Ar 14.23327 0.46715 13.43175
Ar 12.59959 2.56926 10.96973
Ar 12.11561 22.04293 16.24832
Ar 11.70943 1.03972 19.70366
Ar 14.69476 21.41447 19.31251
Ar 14.05540 2.13599 17.13866
Ar 8.59602 5.63864 1.72486
Ar 10.46826 9.68061 2.45115
Ar 12.83618 7.44781 4.29975
Ar 11.71744 6.96437 0.28240
Ar 10.58281 8.15709 7.80472
Ar 10.64237 10.29745 11.12618
Ar 12.62956 5.67795 8.47108
Ar 14.43729 8.91770 7.65678
Ar 11.26167 5.78018 11.70999
Ar 11.78305 7.77079 14.66421
Ar 13.86974 3.95115 14.05265
Ar 14.76958 7.18024 10.80686
Ar 10.95195 4.62830 16.61081
Ar 11.22135 8.74062 19.11983
Ar 13.96619 5.33678 20.08205
Ar 15.29281 6.33544 16.88740
Ar 13.57698 10.51109 1.00013
Ar 13.54255 13.92708 4.92535
Ar 14.88375 10.59025 4.40117
Ar 13.86427 14.54074 21.23320
Ar 11.37515 11.25907 6.45736
Ar 11.61121 15.34431 8.25745
Ar 14.56699 10.58433 11.21387
Ar 14.58261 12.59292 7.95168
Ar 11.39582 14.06916 11.71709
Ar 11.25865 16.33435 14.32900
Ar 15.41822 8.71134 14.10804
Ar 14.95937 14.61857 11.02368
Ar 13.34438 12.73922 14.79779
Ar 10.25341 15.01602 20.96022
Ar 11.85784 12.02555 19.25676
Ar 14.06911 15.64067 17.06957
Ar 12.04690 17.62797 1.12566
Ar 11.27585 20.73425 2.83122
Ar 15.76103 16.37515 4.81823
Ar 14.76115 19.86036 22.73096
Ar 11.91011 17.09587 4.94077
Ar 11.57487 18.92958 7.98070
Ar 15.13675 18.33810 7.82380
Ar 13.88117 20.33490 5.35982
Ar 13.19394 17.33685 10.96455
Ar 12.71391 19.97652 13.33531
Ar 15.04842 16.56764 13.83813
Ar 13.64921 22.11490 9.68515
Ar 12.05284 18.57690 17.74883
Ar 11.47770 20.24704 21.03109
Ar 14.83696 17.62687 19.94316
Ar 15.45378 19.54919 16.11871
Ar 16.79052 0.42426 0.70953
Ar 17.53068 3.95704 2.52890
Ar 20.97720 1.41812 2.27895
Ar 17.93505 5.10033 21.50069
Ar 18.99251 22.23561 4.51776
Ar 17.59340 2.69981 6.70542
Ar 20.85813 1.48471 8.06715
Ar 20.17519 4.42691 4.58956
Ar 17.08796 0.07961 10.81392
Ar 17.18861 2.01756 14.18115
Ar 19.96950 22.35946 14.52366
Ar 19.91631 2.02941 11.66288
Ar 17.76265 0.00014 17.11663
Ar 17.02222 1.98498 19.91198
Ar 20.11280 0.09262 21.66470
Ar 20.69416 1.62236 18.08203
Ar 15.79473 7.58241 0.56920
Ar 18.13230 10.38379 1.75158
Ar 20.44574 6.71881 1.22152
Ar 18.19331 8.75253 21.03675
Ar 16.81812 6.98533 4.62704
Ar 19.30716 6.02926 7.88721
Ar 22.71252 5.51014 7.52006
Ar 20.35921 8.75452 4.85620
Ar 15.82288 3.45810 10.12153
Ar 17.13375 5.65557 14.00558
Ar 20.32263 3.82078 14.89691
Ar 20.04022 6.16638 11.25350
Ar 18.14571 4.65428 17.68524
Ar 14.65046 9.06909 20.21565
Ar 21.15104 5.23031 19.62145
Ar 19.45884 8.20250 17.64497
Ar 16.24522 11.68096 22.24869
Ar 16.98383 13.62345 3.09270
Ar 22.14477 12.58668 0.66752
Ar 19.24103 14.49261 0.27016
Ar 17.77828 9.89169 7.25724
Ar 18.31773 12.44632 10.75856
Ar 21.20320 9.15815 8.50286
Ar 20.02384 12.11606 4.50718
Ar 17.93072 8.96321 10.68237
Ar 17.02764 13.66836 14.64002
Ar 18.59090 10.22496 14.73813
Ar 20.44072 13.26910 13.32377
Ar 16.40142 10.63306 17.50730
Ar 16.86865 13.64511 18.81346
Ar 19.82988 12.01796 20.05623
Ar 21.36662 13.85014 17.44278
Ar 16.41637 16.67927 0.28450
Ar 16.06804 20.48979 2.87582
Ar 20.27522 16.00607 4.31235
Ar 19.99902 19.69835 0.64531
Ar 17.65576 14.29957 7.13128
Ar 16.49556 21.93600 7.35748
Ar 17.92525 19.17422 9.90498
Ar 18.40656 18.77406 6.17772
Ar 18.01684 16.00872 11.39802
Ar 17.42027 20.11361 13.48261
Ar 19.69360 17.03910 14.47946
Ar 20.70509 20.69945 11.59432
Ar 17.36945 16.71480 17.48053
Ar 17.84222 19.59756 19.64364
Ar 19.96622 16.61902 20.11954
Ar 20.22119 20.13564 17.25879
256
frame 94
Ar 1.06625 0.53141 21.22398
Ar 22.11443 3.76964 22.76839
Ar 1.94652 1.91249 1.81479
Ar 2.65760 5.18409 0.57364
Ar 22.68814 0.03571 5.39122
Ar 1.16871 3.49380 9.92558
Ar 1.77894 21.34898 8.02010
Ar 1.40427 2.81629 6.64375
Ar 0.37425 0.15808 11.06071
Ar 0.11034 1.19643 14.31981
Ar 3.35427 21.53735 13.86656
Ar 3.54248 2.24716 13.00228
Ar 0.24467 21.93533 17.78821
Ar 1.60764 4.07793 20.15324
Ar 3.44640 21.46404 19.50341
Ar 2.98894 1.73859 17.00489
Ar 0.13288 7.89542 21.21530
Ar 1.07709 8.16013 2.03370
Ar 3.90805 8.10372 0.06862
Ar 5.94413 11.18073 21.09077
Ar 0.55129 4.92998 3.36264
Ar 1.02653 7.23018 10.55459
Ar 4.45803 5.81378 7.67395
Ar 1.60594 8.56743 7.28051
Ar 0.91208 4.94862 12.97095
Ar 20.89954 7.17310 14.40253
Ar 3.85232 4.87862 15.22735
Ar 1.31561 8.91387 13.73070
Ar 0.43505 4.13351 16.60797
Ar 0.09663 7.90597 17.23142
Ar 3.56381 6.60649 19.34154
Ar 3.50868 10.47930 18.26844
Ar 2.66996 10.96802 0.11559
Ar 1.78187 13.82232 3.01928
Ar 3.60941 10.14805 3.39061
Ar 3.53797 13.89660 20.00672
Ar 0.17618 11.39245 5.86822
Ar 21.12326 13.20747 8.79916
Ar 1.35014 11.05653 9.71155
Ar 1.89156 15.08935 6.39553
Ar 21.28682 10.34815 11.92738
Ar 0.23795 15.64070 14.10798
Ar 1.45949 12.30661 12.99218
Ar 1.41356 14.96997 10.03443
Ar 21.94015 10.94946 15.81244
Ar 0.10393 15.56731 21.40791
Ar 0.18953 11.02533 19.90801
Ar 2.12848 13.49949 16.24780
Ar 22.54095 17.03635 1.59649
Ar 21.79360 19.98939 3.93362
Ar 2.50511 17.85505 3.70382
Ar 1.80492 20.58246 0.93216
Ar 20.75560 16.56992 7.86701
Ar 21.49568 20.11616 7.90441
Ar 2.84031 17.78228 8.17539
Ar 2.74327 21.21797 4.90871
Ar 21.61346 17.22751 11.19043
Ar 0.13206 19.49881 14.20444
Ar 3.32483 16.84766 13.88699
Ar 2.05683 19.59443 10.97646
Ar 0.22904 17.05830 17.62552
Ar 22.23766 19.52358 20.92835
Ar 2.96335 17.56345 20.13097
Ar 3.10282 19.49190 16.89099
Ar 5.14060 0.82631 21.88145
Ar 6.30185 2.80262 2.49614
Ar 9.46532 2.25686 3.28736
Ar 9.03577 2.17087 22.25936
Ar 4.98232 0.83295 5.63265
Ar 5.23356 2.64194 8.66857
Ar 7.50569 22.54903 8.25509
Ar 7.07695 3.90422 5.85250
Ar 5.47533 21.88703 11.03318
Ar 6.53517 2.42970 14.88618
Ar 7.96445 21.78856 13.92725
Ar 7.60118 2.60975 11.50776
Ar 5.90299 21.93546 16.90756
Ar 5.76236 2.32023 18.84563
Ar 8.14805 21.52275 19.70683
Ar 9.32114 0.90490 16.97670
Ar 6.21602 4.43656 21.85865
Ar 7.02493 9.64471 1.42494
Ar 7.87386 7.53036 4.97527
Ar 9.46905 11.36104 21.94770
Ar 4.71899 6.32272 3.53154
Ar 4.76697 9.05541 11.89914
Ar 7.73370 5.98213 9.73211
Ar 6.51409 8.98399 8.51556
Ar 4.13756 5.50346 11.65307
Ar 4.70786 8.22319 15.48265
Ar 8.73745 5.91660 14.09290
Ar 8.26089 9.22087 13.20528
Ar 7.34065 4.78644 17.23450
Ar 6.75321 7.57571 20.25659
Ar 9.54001 5.26168 20.50434
Ar 7.57434 9.15224 17.03993
Ar 7.85113 13.33362 1.62014
Ar 5.69984 14.39599 4.17398
Ar 6.59269 10.71865 5.11756
Ar 11.76725 13.33729 0.97815
Ar 3.81140 11.75001 6.73836
Ar 5.70828 15.41835 7.42195
Ar 8.51821 12.56872 7.86078
Ar 10.03361 13.92141 4.33200
Ar 5.35742 12.38893 9.96189
Ar 4.87651 12.27212 13.49474
Ar 7.92797 13.10432 12.42500
Ar 8.23632 15.55137 9.92196
Ar 6.34655 13.64555 17.59724
Ar 6.81126 14.93360 21.02014
Ar 9.71514 13.04064 15.67127
Ar 9.19558 16.05683 17.72153
Ar 4.20539 16.07323 0.64356
Ar 5.42600 21.45112 2.62493
Ar 8.33849 16.76800 1.93903
Ar 8.72727 20.81173 0.30908
Ar 5.41230 18.81050 5.39570
Ar 6.35866 18.26319 9.00948
Ar 8.78643 17.36098 6.48400
Ar 8.35784 21.03472 5.07473
Ar 4.61264 15.97370 11.11479
Ar 6.28410 18.80169 12.42724
Ar 7.46921 15.92721 14.88302
Ar 9.64851 18.03418 11.80150
Ar 6.70412 18.62388 18.39991
Ar 5.55607 19.26945 22.49421
Ar 8.69250 17.98621 21.09489
Ar 9.61031 19.21273 15.34499
Ar 11.81691 0.50500 0.20567
Ar 10.50731 4.78339 6.07653
Ar 13.94416 0.77992 3.63126
Ar 14.59491 3.20562 0.07774
Ar 10.85371 22.34267 7.01307
Ar 9.86005 2.63698 8.65459
Ar 14.00509 2.42582 7.02945
Ar 13.93994 4.43916 3.68394
Ar 10.13926 22.69699 10.80702
Ar 10.38402 2.35370 13.75013
Ar 14.20192 0.36517 13.33593
Ar 12.53153 2.54396 10.85344
Ar 12.08020 22.04277 16.23357
Ar 11.67101 0.99454 19.68995
Ar 14.63175 21.45457 19.29777
Ar 14.11397 2.19149 17.11900
Ar 8.53897 5.64080 1.77089
Ar 10.48071 9.65390 2.55017
Ar 12.92703 7.48862 4.25093
Ar 11.70596 7.01231 0.14818
Ar 10.60182 8.27275 7.76324
Ar 10.60223 10.19372 11.06732
Ar 12.63214 5.59556 8.45733
Ar 14.33945 8.95770 7.66918
Ar 11.29190 5.80256 11.64228
Ar 11.71482 7.82532 14.61629
Ar 13.81753 4.02158 13.98856
Ar 14.72293 7.14754 10.76280
Ar 10.95910 4.55078 16.60215
Ar 11.18135 8.73325 19.11829
Ar 13.97839 5.22518 20.06549
Ar 15.28206 6.27409 16.87397
Ar 13.45268 10.44104 1.02030
Ar 13.58956 13.82300 4.88637
Ar 14.97651 10.62828 4.51765
Ar 13.86675 14.51362 21.27412
Ar 11.45444 11.27255 6.44942
Ar 11.74570 15.29154 8.24917
Ar 14.55097 10.65201 11.26047
Ar 14.68335 12.65523 7.98463
Ar 11.32226 14.06547 11.60426
Ar 11.33042 16.34208 14.34072
Ar 15.39722 8.60538 14.15771
Ar 14.99727 14.51863 11.12854
Ar 13.38570 12.77415 14.70327
Ar 10.25766 15.09764 20.96904
Ar 11.85002 12.12552 19.22371
Ar 14.15042 15.66006 17.00635
Ar 12.05742 17.60490 1.15922
Ar 11.29147 20.85867 2.83091
Ar 15.79917 16.48929 4.79987
Ar 14.74232 19.83623 22.74067
Ar 11.90624 17.02844 5.02480
Ar 11.61937 18.99756 7.98919
Ar 15.14981 18.30610 7.85943
Ar 13.82104 20.17853 5.32236
Ar 13.12545 17.49574 10.85362
Ar 12.65399 19.98112 13.24390
Ar 15.03137 16.49578 13.91573
Ar 13.51737 22.02997 9.75873
Ar 12.04045 18.59736 17.72738
Ar 11.50400 20.29087 21.12714
Ar 14.84981 17.73748 20.00132
Ar 15.46461 19.59326 16.16355
Ar 16.77628 0.35435 0.72426
Ar 17.56039 4.01679 2.62667
Ar 20.99016 1.41570 2.29411
Ar 17.94959 5.23727 21.53962
Ar 18.98959 22.18224 4.45704
Ar 17.70557 2.76065 6.59473
Ar 20.76032 1.58258 7.97517
Ar 20.25159 4.37266 4.72800
Ar 17.11831 0.07849 10.75088
Ar 17.16952 2.17058 14.16555
Ar 19.96431 22.28287 14.49511
Ar 19.84514 1.99401 11.57269
Ar 17.71492 22.71654 17.19434
Ar 17.10855 1.97277 19.92957
Ar 20.02565 22.82247 21.65778
Ar 20.73460 1.68446 18.14445
Ar 15.73408 7.55812 0.53051
Ar 18.25087 10.32404 1.72126
Ar 20.47139 6.87216 1.12749
Ar 18.15410 8.74113 21.06040
Ar 16.92447 6.97596 4.55410
Ar 19.31210 5.98491 7.87181
Ar 22.74561 5.50732 7.42903
Ar 20.33559 8.80339 4.87464
Ar 15.74868 3.45922 10.05094
Ar 17.14906 5.71330 14.08451
Ar 20.27821 3.78191 14.89742
Ar 20.05175 6.21697 11.33622
Ar 18.14951 4.64989 17.58334
Ar 14.65560 9.14071 20.15337
Ar 21.10553 5.27369 19.61523
Ar 19.48865 8.20116 17.71096
Ar 16.31585 11.79699 22.32791
Ar 17.07174 13.53076 3.15289
Ar 22.15717 12.51422 0.63577
Ar 19.29578 14.54926 0.30286
Ar 17.89215 9.89084 7.15024
Ar 18.29007 12.53253 10.81986
Ar 21.26022 8.99015 8.45165
Ar 19.99353 12.04732 4.40832
Ar 17.88674 8.97762 10.64623
Ar 16.92135 13.60582 14.64788
Ar 18.61543 10.31669 14.83917
Ar 20.50076 13.20480 13.47251
Ar 16.36253 10.63753 17.51843
Ar 16.83654 13.63853 18.94423
Ar 19.81754 12.03422 19.95758
Ar 21.30868 13.91154 17.47051
Ar 16.54156 16.81446 0.37184
Ar 16.13938 20.43309 2.93296
Ar 20.25692 16.04051 4.31588
Ar 20.00129 19.78243 0.62455
Ar 17.57304 14.24685 7.20390
Ar 16.52825 21.89476 7.27596
Ar 17.89708 19.08993 9.92599
Ar 18.45890 18.76681 6.23877
Ar 18.14828 16.07452 11.37105
Ar 17.34431 20.05029 13.46307
Ar 19.59657 17.10388 14.46249
Ar 20.69408 20.62510 11.58235
Ar 17.37875 16.61436 17.43998
Ar 17.68461 19.48529 19.60779
Ar 20.05815 16.62661 20.23440
Ar 20.20330 20.07714 17.17142
256
frame 95
Ar 0.97643 0.50997 21.23647
Ar 22.14612 3.75688 22.72955
Ar 1.90792 1.85478 1.75318
Ar 2.66395 5.15381 0.51183
Ar 22.64427 22.78532 5.38312
Ar 1.08837 3.58950 9.88823
Ar 1.79762 21.38360 8.01908
Ar 1.43722 2.76925 6.67797
Ar 0.46717 0.19239 10.97475
Ar 0.18032 1.23770 14.26303
Ar 3.48027 21.57125 13.91374
Ar 3.57103 2.13600 12.91412
Ar 0.32381 21.92326 17.82592
Ar 1.57371 4.03505 20.14470
Ar 3.41555 21.46561 19.56891
Ar 2.97961 1.78526 17.12414
Ar 0.13502 7.84623 21.21612
Ar 1.01522 8.09623 2.04813
Ar 3.89216 8.12532 22.81476
Ar 6.02068 11.13020 21.04229
Ar 0.52618 4.82636 3.29109
Ar 1.02587 7.19748 10.57706
Ar 4.41147 5.78405 7.75427
Ar 1.63944 8.55178 7.27207
Ar 0.91423 4.86773 13.14617
Ar 20.92576 7.21959 14.31328
Ar 3.88571 4.76706 15.36030
Ar 1.32984 8.91408 13.76696
Ar 0.45323 4.12874 16.58893
Ar 0.16343 7.94166 17.18454
Ar 3.53395 6.68501 19.26654
Ar 3.61769 10.41437 18.38453
Ar 2.63152 11.15095 0.08176
Ar 1.73250 13.76316 3.08522
Ar 3.61505 10.17948 3.47789
Ar 3.46366 13.82706 20.00775
Ar 0.24656 11.38456 5.99088
Ar 21.19700 13.21600 8.78866
Ar 1.19381 11.06310 9.79549
Ar 1.82827 15.07854 6.33112
Ar 21.28476 10.25075 11.82619
Ar 0.27899 15.73090 14.02689
Ar 1.33782 12.26243 13.04429
Ar 1.40143 14.88593 9.96158
Ar 22.07604 10.94826 15.92074
Ar 0.25903 15.59221 21.40767
Ar 0.22070 11.07907 19.84962
Ar 2.12369 13.43155 16.17689
Ar 22.43298 17.05138 1.60754
Ar 21.67890 20.03236 3.96130
Ar 2.54966 17.72972 3.59067
Ar 1.76951 20.69420 1.08791
Ar 20.79122 16.52175 7.84651
Ar 21.45246 20.20372 7.98174
Ar 2.87000 17.64789 8.28874
Ar 2.68079 21.18563 4.85980
Ar 21.59656 17.26452 11.21221
Ar 0.02870 19.49387 14.19718
Ar 3.37032 16.84341 13.95644
Ar 2.23661 19.57574 10.92943
Ar 0.32508 17.06388 17.64696
Ar 22.23063 19.55245 20.98834
Ar 2.95178 17.53547 20.11801
Ar 3.06848 19.40456 16.95421
Ar 5.05752 0.74971 21.99092
Ar 6.18983 2.90074 2.56563
Ar 9.51115 2.38090 3.19769
Ar 8.97535 2.20446 22.38009
Ar 4.94834 0.83944 5.60466
Ar 5.23984 2.73795 8.74476
Ar 7.44537 22.38390 8.23088
Ar 7.20385 3.90961 5.86584
Ar 5.42034 21.81301 10.99530
Ar 6.61851 2.49628 14.91087
Ar 7.93002 21.84611 13.89914
Ar 7.67701 2.67611 11.61923
Ar 5.92505 21.98470 16.84339
Ar 5.82076 2.36325 18.85957
Ar 8.21082 21.55674 19.71964
Ar 9.27861 0.99577 17.09648
Ar 6.19899 4.54823 21.78656
Ar 6.97809 9.65540 1.46219
Ar 7.85924 7.55661 4.97842
Ar 9.51098 11.37112 21.91000
Ar 4.76778 6.28784 3.59938
Ar 4.74735 9.08416 11.98647
Ar 7.72607 5.94663 9.67758
Ar 6.48614 9.05632 8.54611
Ar 4.14415 5.48975 11.59538
Ar 4.62248 8.24117 15.58880
Ar 8.70448 5.96197 14.14390
Ar 8.33079 9.15468 13.20015
Ar 7.35007 4.94500 17.31434
Ar 6.76959 7.53854 20.31831
Ar 9.53980 5.27387 20.58672
Ar 7.49635 9.29575 16.96967
Ar 7.94760 13.32351 1.55358
Ar 5.64559 14.41625 4.14669
Ar 6.66528 10.76531 5.06780
Ar 11.79219 13.40264 1.07597
Ar 3.77179 11.67762 6.67820
Ar 5.68794 15.48831 7.41111
Ar 8.56128 12.67557 7.80868
Ar 9.93754 14.00923 4.26136
Ar 5.35938 12.47993 10.00993
Ar 4.94211 12.13104 13.53402
Ar 7.87697 13.10377 12.44431
Ar 8.14237 15.56212 9.85938
Ar 6.34715 13.46903 17.58913
Ar 6.67350 14.92196 21.03817
Ar 9.70082 13.07400 15.66468
Ar 9.28559 15.91079 17.74346
Ar 4.10517 16.02299 0.55036
Ar 5.40552 21.44564 2.63951
Ar 8.32226 16.85176 1.94000
Ar 8.71853 20.80743 0.26989
Ar 5.31230 18.80426 5.32207
Ar 6.31831 18.24556 8.89393
Ar 8.82727 17.23803 6.35855
Ar 8.44237 21.03585 4.98385
Ar 4.64164 15.97185 10.99827
Ar 6.25300 18.83311 12.40070
Ar 7.50578 15.83354 14.83206
Ar 9.70723 18.07330 11.88635
Ar 6.65612 18.74093 18.37071
Ar 5.50274 19.39144 22.57170
Ar 8.77851 18.04140 21.04404
Ar 9.63935 19.24150 15.39802
Ar 11.92070 0.42999 0.24135
Ar 10.41787 4.84214 5.98368
Ar 13.97890 0.69801 3.71345
Ar 14.67535 3.15760 0.05549
Ar 10.93413 22.41291 7.07940
Ar 9.85158 2.53772 8.65688
Ar 13.98161 2.29270 7.02623
Ar 13.89216 4.34814 3.68307
Ar 10.13408 22.70597 10.83410
Ar 10.31469 2.38448 13.69382
Ar 14.16928 0.26350 13.24103
Ar 12.46905 2.51628 10.74143
Ar 12.08326 22.01864 16.21235
Ar 11.63398 0.95690 19.64930
Ar 14.56279 21.50509 19.28042
Ar 14.18299 2.24829 17.10395
Ar 8.48317 5.64924 1.81522
Ar 10.46949 9.63029 2.66670
Ar 12.99777 7.58844 4.21817
Ar 11.70422 7.06303 0.01363
Ar 10.58827 8.37691 7.72886
Ar 10.59925 10.10595 10.97510
Ar 12.68451 5.49308 8.45574
Ar 14.23655 8.99371 7.68112
Ar 11.31297 5.83019 11.57985
Ar 11.65737 7.88966 14.57671
Ar 13.76330 4.10560 13.92049
Ar 14.68632 7.09805 10.74087
Ar 10.98086 4.47181 16.60746
Ar 11.12634 8.69554 19.11607
Ar 13.98453 5.11966 20.04557
Ar 15.22243 6.23262 16.87924
Ar 13.35476 10.33594 1.03496
Ar 13.62415 13.72059 4.83039
Ar 15.08262 10.65356 4.62677
Ar 13.88619 14.48784 21.30628
Ar 11.55808 11.30146 6.42346
Ar 11.87970 15.22867 8.22954
Ar 14.53049 10.74254 11.30426
Ar 14.76086 12.69334 8.03863
Ar 11.25369 14.05166 11.49098
Ar 11.42020 16.33218 14.37386
Ar 15.35919 8.53513 14.20631
Ar 15.03235 14.38016 11.21425
Ar 13.42180 12.80725 14.60320
Ar 10.31073 15.13160 20.98698
Ar 11.85200 12.24988 19.18426
Ar 14.18709 15.65144 16.98435
Ar 12.06469 17.57277 1.18796
Ar 11.31210 20.98116 2.83653
Ar 15.84807 16.63108 4.77313
Ar 14.70895 19.83806 22.73740
Ar 11.92289 16.96518 5.08237
Ar 11.65096 19.07662 8.01308
Ar 15.16621 18.25439 7.91328
Ar 13.72874 20.03706 5.29830
Ar 13.05922 17.65213 10.74157
Ar 12.58967 19.98513 13.16231
Ar 15.02811 16.46909 13.96960
Ar 13.39747 21.93305 9.82425
Ar 12.04016 18.61713 17.72118
Ar 11.54772 20.32470 21.20312
Ar 14.82628 17.82010 20.04448
Ar 15.44503 19.63119 16.24788
Ar 16.76734 0.28794 0.73605
Ar 17.57322 4.06184 2.69661
Ar 21.00131 1.40832 2.31439
Ar 17.96094 5.35644 21.58168
Ar 18.97832 22.13581 4.40580
Ar 17.79493 2.81723 6.48347
Ar 20.67245 1.68046 7.89486
Ar 20.34200 4.32213 4.87841
Ar 17.13222 0.05793 10.69041
Ar 17.14744 2.30991 14.15355
Ar 19.94891 22.22733 14.46758
Ar 19.80063 1.97594 11.48991
Ar 17.64516 22.59920 17.26603
Ar 17.18613 1.96574 19.96399
Ar 19.94263 22.74250 21.63633
Ar 20.76869 1.76426 18.21023
Ar 15.66223 7.52432 0.51108
Ar 18.40127 10.22859 1.72548
Ar 20.48891 7.02784 1.03861
Ar 18.13416 8.74686 21.07819
Ar 17.02823 6.97859 4.48791
Ar 19.28610 5.94344 7.84850
Ar 22.73007 5.58462 7.33963
Ar 20.33163 8.78399 4.88270
Ar 15.70236 3.47308 9.98397
Ar 17.20479 5.75567 14.12957
Ar 20.23097 3.72239 14.88035
Ar 20.06545 6.24272 11.38849
Ar 18.17113 4.62772 17.49496
Ar 14.64609 9.20450 20.10604
Ar 21.05113 5.31847 19.59662
Ar 19.49981 8.20199 17.78040
Ar 16.37128 11.94944 22.36132
Ar 17.14336 13.44365 3.20506
Ar 22.17042 12.42764 0.60360
Ar 19.34918 14.60129 0.33765
Ar 17.99357 9.90492 7.04388
Ar 18.23755 12.61075 10.87466
Ar 21.29169 8.83311 8.41622
Ar 19.94635 12.03934 4.30239
Ar 17.84281 8.98840 10.61805
Ar 16.82911 13.53975 14.65955
Ar 18.63915 10.40020 14.91533
Ar 20.55240 13.19298 13.64112
Ar 16.31900 10.61436 17.50793
Ar 16.79241 13.64701 19.10440
Ar 19.76537 12.04321 19.88375
Ar 21.24910 14.00124 17.49079
Ar 16.66603 16.94472 0.46514
Ar 16.25263 20.37058 2.99912
Ar 20.23209 16.06818 4.31290
Ar 19.97357 19.85443 0.63796
Ar 17.52676 14.20944 7.26971
Ar 16.55871 21.85476 7.19161
Ar 17.87346 19.04335 9.93003
Ar 18.50435 18.76847 6.28624
Ar 18.28701 16.11265 11.35538
Ar 17.28519 19.98885 13.40566
Ar 19.50534 17.17373 14.45648
Ar 20.67165 20.54553 11.55261
Ar 17.42747 16.54581 17.37892
Ar 17.56127 19.40293 19.58530
Ar 20.09485 16.65163 20.31932
Ar 20.18429 19.98372 17.08601
256
frame 96
Ar 0.87047 0.49686 21.25672
Ar 22.15488 3.74822 22.69885
Ar 1.88058 1.77567 1.69902
Ar 2.66882 5.07392 0.45258
Ar 22.56931 22.78155 5.39208
Ar 1.01596 3.67615 9.89460
Ar 1.84339 21.44257 8.05576
Ar 1.51933 2.66858 6.65973
Ar 0.56287 0.22062 10.87582
Ar 0.25911 1.28415 14.22892
Ar 3.59481 21.59204 13.97988
Ar 3.59561 2.02316 12.80936
Ar 0.40504 21.90749 17.85214
Ar 1.54586 3.96393 20.11424
Ar 3.40946 21.47467 19.66327
Ar 2.95181 1.79922 17.23037
Ar 0.15134 7.78655 21.22406
Ar 0.94091 8.04858 2.06987
Ar 3.94007 8.14664 22.71387
Ar 6.09052 11.08529 20.99259
Ar 0.50901 4.71851 3.23496
Ar 1.02151 7.18473 10.58780
Ar 4.34551 5.80413 7.81689
Ar 1.73754 8.52439 7.24509
Ar 0.90120 4.78273 13.34357
Ar 20.96680 7.30075 14.29814
Ar 3.91999 4.66830 15.50065
Ar 1.35855 8.88525 13.80712
Ar 0.46412 4.14200 16.59121
Ar 0.26341 7.94417 17.16442
Ar 3.50501 6.78037 19.17517
Ar 3.72282 10.34944 18.49706
Ar 2.57829 11.39412 0.03918
Ar 1.68833 13.69895 3.13610
Ar 3.61042 10.20399 3.55173
Ar 3.37032 13.75086 20.00753
Ar 0.30467 11.40072 6.10314
Ar 21.26587 13.20030 8.77910
Ar 1.06129 11.07002 9.85685
Ar 1.75570 15.04663 6.25967
Ar 21.26351 10.13318 11.73058
Ar 0.27165 15.80425 13.95516
Ar 1.21023 12.24632 13.08146
Ar 1.38024 14.78875 9.90347
Ar 22.21165 10.95734 16.02752
Ar 0.44763 15.58142 21.39861
Ar 0.28035 11.14414 19.78013
Ar 2.13152 13.36998 16.13862
Ar 22.31866 17.07824 1.62908
Ar 21.56692 19.99696 3.95925
Ar 2.57878 17.59255 3.46860
Ar 1.73426 20.80389 1.24398
Ar 20.82978 16.48242 7.82363
Ar 21.38011 20.28429 8.05691
Ar 2.90173 17.53096 8.36799
Ar 2.63498 21.11817 4.75000
Ar 21.60173 17.29296 11.23149
Ar 22.75736 19.48976 14.20164
Ar 3.44898 16.87337 14.06950
Ar 2.40909 19.56414 10.94315
Ar 0.41235 17.07518 17.66496
Ar 22.25827 19.58233 21.01561
Ar 2.95721 17.52140 20.11018
Ar 3.03296 19.29487 16.97566
Ar 4.97727 0.67278 22.12019
Ar 6.03803 2.99182 2.61508
Ar 9.59314 2.48987 3.12145
Ar 8.89510 2.23175 22.49555
Ar 4.92824 0.86213 5.58042
Ar 5.25308 2.78665 8.84984
Ar 7.38815 22.22326 8.19639
Ar 7.29404 3.90764 5.88500
Ar 5.35312 21.77002 10.94454
Ar 6.70166 2.54343 14.94817
Ar 7.89417 21.92735 13.85045
Ar 7.72285 2.74601 11.69138
Ar 5.93771 22.04164 16.77920
Ar 5.89593 2.38499 18.89573
Ar 8.27844 21.61093 19.73262
Ar 9.20095 1.10701 17.20238
Ar 6.15788 4.63302 21.73662
Ar 6.92788 9.65799 1.50314
Ar 7.86279 7.56384 4.98789
Ar 9.56539 11.36466 21.86216
Ar 4.80720 6.25377 3.66214
Ar 4.72176 9.09383 12.05259
Ar 7.72829 5.89584 9.62694
Ar 6.45442 9.14446 8.56877
Ar 4.16540 5.47403 11.53066
Ar 4.50763 8.25362 15.67934
Ar 8.65563 5.95964 14.19447
Ar 8.35770 9.11773 13.21562
Ar 7.37023 5.14562 17.40197
Ar 6.80273 7.54473 20.36847
Ar 9.55270 5.28297 20.65247
Ar 7.45359 9.45288 16.91739
Ar 8.02317 13.30189 1.46725
Ar 5.58329 14.43213 4.09897
Ar 6.77236 10.83809 5.01445
Ar 11.80246 13.48853 1.19580
Ar 3.72079 11.62516 6.64730
Ar 5.63481 15.47708 7.36597
Ar 8.59613 12.77843 7.75574
Ar 9.84450 14.09873 4.21629
Ar 5.35267 12.56740 10.03617
Ar 4.96089 11.99837 13.62562
Ar 7.88121 13.10629 12.45136
Ar 8.08199 15.55648 9.81329
Ar 6.34513 13.28493 17.57761
Ar 6.54699 14.91409 21.05834
Ar 9.69672 13.08714 15.65456
Ar 9.38740 15.78468 17.78354
Ar 3.99772 15.96670 0.46597
Ar 5.39748 21.45201 2.64689
Ar 8.30580 16.94908 1.94179
Ar 8.69721 20.83158 0.28034
Ar 5.24269 18.79443 5.26522
Ar 6.29685 18.35136 8.79772
Ar 8.83285 17.11479 6.24223
Ar 8.50860 21.02762 4.88409
Ar 4.68651 15.94050 10.85894
Ar 6.22209 18.84750 12.40897
Ar 7.51949 15.75760 14.75006
Ar 9.75520 18.12465 11.95668
Ar 6.58565 18.83868 18.32128
Ar 5.43675 19.50427 22.62961
Ar 8.84694 18.11662 20.99496
Ar 9.64243 19.26671 15.45088
Ar 12.05066 0.36827 0.30249
Ar 10.35709 4.91787 5.85882
Ar 14.01727 0.60714 3.78801
Ar 14.75636 3.10905 0.04607
Ar 11.03666 22.49075 7.13410
Ar 9.80235 2.47035 8.62905
Ar 13.95019 2.15234 7.02369
Ar 13.85193 4.23290 3.67850
Ar 10.10669 22.68120 10.88673
Ar 10.27463 2.40681 13.66244
Ar 14.14615 0.18077 13.15253
Ar 12.43197 2.49007 10.65266
Ar 12.10727 21.98677 16.18828
Ar 11.60463 0.92785 19.60288
Ar 14.49050 21.56522 19.26420
Ar 14.25942 2.30408 17.09182
Ar 8.43018 5.66844 1.85405
Ar 10.42300 9.61016 2.80000
Ar 13.06291 7.71411 4.19622
Ar 11.71150 7.11884 22.70853
Ar 10.54833 8.44358 7.70358
Ar 10.63298 10.03642 10.85290
Ar 12.75634 5.37802 8.43369
Ar 14.13771 9.02458 7.69806
Ar 11.31388 5.86332 11.53318
Ar 11.61315 7.96201 14.54524
Ar 13.70938 4.19606 13.84847
Ar 14.66535 7.04796 10.74571
Ar 11.01375 4.39439 16.62474
Ar 11.06109 8.64377 19.11419
Ar 13.98346 5.02156 20.02244
Ar 15.12095 6.20409 16.90398
Ar 13.29348 10.21886 1.03540
Ar 13.64938 13.65014 4.75778
Ar 15.20729 10.65487 4.72335
Ar 13.92017 14.47085 21.33143
Ar 11.67520 11.35461 6.37920
Ar 12.01218 15.16097 8.19702
Ar 14.50630 10.83596 11.34750
Ar 14.78416 12.69059 8.11259
Ar 11.19007 14.03109 11.38814
Ar 11.51935 16.30524 14.42351
Ar 15.30068 8.51319 14.24666
Ar 15.05931 14.23867 11.28897
Ar 13.43818 12.83637 14.49831
Ar 10.39449 15.11700 21.02380
Ar 11.86024 12.38096 19.13510
Ar 14.17164 15.61115 17.02980
Ar 12.06816 17.53468 1.21403
Ar 11.33555 21.09185 2.84612
Ar 15.89948 16.77752 4.73478
Ar 14.67230 19.87693 22.75004
Ar 11.97405 16.90055 5.10770
Ar 11.65003 19.16199 8.03188
Ar 15.18288 18.18753 7.97070
Ar 13.62845 19.91542 5.27709
Ar 13.01922 17.76864 10.64727
Ar 12.51911 19.99277 13.10377
Ar 15.04643 16.49582 13.96760
Ar 13.30298 21.82247 9.87793
Ar 12.05772 18.63148 17.73816
Ar 11.60610 20.34160 21.24957
Ar 14.72750 17.83649 20.06922
Ar 15.40567 19.66046 16.35462
Ar 16.76306 0.22275 0.74676
Ar 17.57955 4.08393 2.73948
Ar 21.01098 1.39882 2.33598
Ar 17.96890 5.43982 21.62481
Ar 18.95534 22.10988 4.36755
Ar 17.82077 2.86104 6.37459
Ar 20.61271 1.77096 7.83107
Ar 20.45292 4.27810 5.01396
Ar 17.12050 0.01380 10.62925
Ar 17.10639 2.41330 14.14171
Ar 19.92668 22.20188 14.44146
Ar 19.78929 1.97931 11.41945
Ar 17.56620 22.47852 17.32704
Ar 17.25563 1.96836 20.01282
Ar 19.86603 22.68749 21.59390
Ar 20.79725 1.85008 18.27726
Ar 15.57975 7.48378 0.50989
Ar 18.55920 10.10766 1.73693
Ar 20.49605 7.17899 0.95511
Ar 18.12995 8.78380 21.09079
Ar 17.12558 7.00207 4.43376
Ar 19.22738 5.90624 7.83040
Ar 22.68492 5.70554 7.24396
Ar 20.36296 8.69914 4.86805
Ar 15.68451 3.49698 9.92217
Ar 17.30223 5.78947 14.14023
Ar 20.20625 3.65319 14.84240
Ar 20.06799 6.23322 11.37011
Ar 18.19876 4.59274 17.43021
Ar 14.61599 9.25584 20.08528
Ar 20.99317 5.36102 19.56741
Ar 19.49994 8.20580 17.84520
Ar 16.41811 12.11172 22.38171
Ar 17.17106 13.38250 3.24067
Ar 22.17347 12.33408 0.57150
Ar 19.40317 14.64404 0.37883
Ar 18.06574 9.93769 6.95633
Ar 18.17835 12.67246 10.92536
Ar 21.29377 8.69417 8.39928
Ar 19.93642 12.07158 4.21529
Ar 17.79915 8.99858 10.59359
Ar 16.76427 13.47320 14.67519
Ar 18.66971 10.46778 14.96907
Ar 20.59507 13.21246 13.80930
Ar 16.27710 10.58412 17.47532
Ar 16.73092 13.66886 19.27660
Ar 19.68989 12.03393 19.83697
Ar 21.19156 14.11470 17.49693
Ar 16.78979 17.07103 0.56251
Ar 16.38389 20.29397 3.06774
Ar 20.19841 16.08754 4.30429
Ar 19.91266 19.90405 0.69516
Ar 17.54558 14.20584 7.31777
Ar 16.58160 21.81649 7.10672
Ar 17.85414 19.04916 9.91166
Ar 18.54281 18.77898 6.31957
Ar 18.41404 16.10261 11.35204
Ar 17.23303 19.93036 13.32500
Ar 19.42816 17.24762 14.46230
Ar 20.64207 20.48669 11.50871
Ar 17.51239 16.50151 17.30644
Ar 17.51752 19.37281 19.56398
Ar 20.09047 16.69026 20.37783
Ar 20.16880 19.86116 17.01338
256
frame 97
Ar 0.74982 0.48850 21.28190
Ar 22.13333 3.74405 22.67825
Ar 1.86714 1.67834 1.65456
Ar 2.68343 4.97481 0.39771
Ar 22.47573 0.00414 5.41476
Ar 0.94694 3.75514 9.92956
Ar 1.91428 21.51142 8.09454
Ar 1.62819 2.55695 6.61672
Ar 0.65137 0.24593 10.78160
Ar 0.33814 1.32308 14.21313
Ar 3.69483 21.59012 14.06563
Ar 3.62310 1.92810 12.69090
Ar 0.47396 21.88793 17.86339
Ar 1.53354 3.88077 20.05450
Ar 3.42739 21.47709 19.76659
Ar 2.91222 1.77442 17.33272
Ar 0.18625 7.72808 21.23106
Ar 0.87359 8.01866 2.09679
Ar 4.00964 8.18553 22.60358
Ar 6.15791 11.05186 20.95046
Ar 0.50416 4.61024 3.19106
Ar 1.01448 7.18707 10.59871
Ar 4.26296 5.86979 7.85813
Ar 1.89038 8.49639 7.21039
Ar 0.88732 4.71347 13.50531
Ar 21.01510 7.40447 14.34754
Ar 3.95767 4.59095 15.63695
Ar 1.40093 8.83321 13.84363
Ar 0.45584 4.16852 16.64204
Ar 0.38937 7.90393 17.17643
Ar 3.47280 6.87193 19.07630
Ar 3.81647 10.29097 18.60093
Ar 2.55025 11.64395 22.81629
Ar 1.64778 13.62384 3.15833
Ar 3.59372 10.21354 3.59252
Ar 3.26498 13.66957 19.99991
Ar 0.33012 11.43822 6.19757
Ar 21.30974 13.16107 8.76982
Ar 0.97638 11.06866 9.87889
Ar 1.67648 15.00815 6.19945
Ar 21.20578 10.00407 11.66330
Ar 0.23867 15.85803 13.90242
Ar 1.08452 12.25431 13.09836
Ar 1.35775 14.68314 9.86618
Ar 22.33248 10.98699 16.13271
Ar 0.62955 15.54077 21.39333
Ar 0.35480 11.21422 19.70542
Ar 2.15641 13.32339 16.13866
Ar 22.20379 17.11206 1.64516
Ar 21.46978 19.88848 3.93592
Ar 2.59152 17.44675 3.33953
Ar 1.69557 20.90815 1.38889
Ar 20.87247 16.45745 7.80152
Ar 21.29514 20.36145 8.12122
Ar 2.91804 17.43607 8.39501
Ar 2.58782 21.03222 4.61930
Ar 21.64114 17.30687 11.23309
Ar 22.67448 19.48837 14.21788
Ar 3.55973 16.91967 14.19585
Ar 2.57036 19.56271 11.01659
Ar 0.47753 17.08271 17.67760
Ar 22.31226 19.61342 21.02128
Ar 2.99471 17.52932 20.10631
Ar 3.00833 19.19050 16.96623
Ar 4.90330 0.60397 22.26447
Ar 5.86966 3.06836 2.64642
Ar 9.69440 2.58337 3.06425
Ar 8.80457 2.24608 22.59700
Ar 4.91528 0.89507 5.56326
Ar 5.27616 2.78621 8.97572
Ar 7.34231 22.06840 8.14722
Ar 7.31219 3.88486 5.91351
Ar 5.27479 21.76345 10.88101
Ar 6.77896 2.57856 15.00516
Ar 7.86248 22.02151 13.78435
Ar 7.71673 2.82308 11.69910
Ar 5.93940 22.10678 16.72664
Ar 5.98546 2.38947 18.94698
Ar 8.34592 21.67824 19.74361
Ar 9.10054 1.23122 17.27998
Ar 6.08986 4.67064 21.71962
Ar 6.87755 9.65343 1.54419
Ar 7.88095 7.55900 5.00584
Ar 9.63797 11.34018 21.80455
Ar 4.83215 6.22563 3.72013
Ar 4.69041 9.06436 12.08647
Ar 7.73760 5.83818 9.57622
Ar 6.42143 9.24075 8.58569
Ar 4.19452 5.45336 11.46944
Ar 4.37309 8.25486 15.75537
Ar 8.59931 5.90413 14.24314
Ar 8.35130 9.12340 13.23555
Ar 7.39226 5.36925 17.49901
Ar 6.85330 7.61145 20.39366
Ar 9.57395 5.28136 20.69840
Ar 7.43715 9.62049 16.88017
Ar 8.06940 13.27793 1.36474
Ar 5.51637 14.44209 4.02597
Ar 6.90123 10.93738 4.96313
Ar 11.80930 13.57941 1.32853
Ar 3.68442 11.59937 6.65746
Ar 5.55976 15.40390 7.29359
Ar 8.62829 12.87026 7.69668
Ar 9.75899 14.18651 4.20395
Ar 5.33683 12.63924 10.04011
Ar 4.94312 11.89490 13.77110
Ar 7.92669 13.10301 12.44451
Ar 8.05814 15.55305 9.78896
Ar 6.34099 13.09744 17.56422
Ar 6.44591 14.91058 21.07423
Ar 9.70700 13.06889 15.63608
Ar 9.48826 15.68653 17.82945
Ar 3.88176 15.90616 0.39362
Ar 5.40562 21.47743 2.65496
Ar 8.28798 17.05323 1.94375
Ar 8.66865 20.88246 0.33960
Ar 5.20755 18.77930 5.22626
Ar 6.29866 18.54810 8.71749
Ar 8.79823 16.99658 6.14051
Ar 8.55458 21.01258 4.78872
Ar 4.73205 15.89793 10.74785
Ar 6.19579 18.83852 12.44476
Ar 7.51626 15.70876 14.65842
Ar 9.77631 18.17496 12.00958
Ar 6.50270 18.91662 18.26215
Ar 5.35776 19.59695 22.65896
Ar 8.89693 18.19063 20.93942
Ar 9.61417 19.29166 15.49647
Ar 12.19913 0.34521 0.36198
Ar 10.36811 5.02083 5.72173
Ar 14.06336 0.50567 3.85174
Ar 14.83732 3.06262 0.04946
Ar 11.15006 22.56417 7.16301
Ar 9.70150 2.44766 8.56939
Ar 13.91536 2.00850 7.02643
Ar 13.81246 4.11651 3.67390
Ar 10.05227 22.62656 10.96123
Ar 10.29162 2.41683 13.67440
Ar 14.14005 0.12963 13.07625
Ar 12.42693 2.46416 10.59544
Ar 12.13866 21.96036 16.16557
Ar 11.58903 0.90809 19.56960
Ar 14.41976 21.63184 19.25446
Ar 14.34126 2.35700 17.08104
Ar 8.37895 5.70085 1.88408
Ar 10.34162 9.59733 2.94458
Ar 13.13209 7.83861 4.18190
Ar 11.72871 7.18066 22.58992
Ar 10.48464 8.46899 7.67592
Ar 10.69144 9.98425 10.72170
Ar 12.82928 5.25716 8.37685
Ar 14.04913 9.04585 7.72619
Ar 11.28946 5.90116 11.50163
Ar 11.58142 8.03853 14.52146
Ar 13.65902 4.28929 13.77477
Ar 14.66199 7.00648 10.77708
Ar 11.05475 4.32213 16.65254
Ar 10.98848 8.58671 19.11223
Ar 13.97329 4.92918 20.00068
Ar 14.99719 6.18172 16.93550
Ar 13.25957 10.11234 1.02402
Ar 13.67298 13.62795 4.66663
Ar 15.35064 10.62976 4.80574
Ar 13.95724 14.46685 21.35785
Ar 11.78652 11.42104 6.32609
Ar 12.14258 15.09310 8.15208
Ar 14.47629 10.90354 11.39145
Ar 14.75503 12.64683 8.19476
Ar 11.13416 14.00554 11.30185
Ar 11.61532 16.26657 14.48349
Ar 15.22720 8.53328 14.27598
Ar 15.07259 14.13080 11.36018
Ar 13.41966 12.85954 14.39115
Ar 10.48785 15.07510 21.08675
Ar 11.87380 12.50755 19.07204
Ar 14.12118 15.54622 17.12724
Ar 12.06844 17.49325 1.23805
Ar 11.35949 21.17825 2.86342
Ar 15.95011 16.91658 4.68384
Ar 14.64770 19.94968 22.79264
Ar 12.05704 16.82719 5.10184
Ar 11.59780 19.25008 8.02162
Ar 15.19602 18.10891 8.01209
Ar 13.54609 19.82383 5.25090
Ar 13.01590 17.82296 10.59384
Ar 12.44415 20.00677 13.08079
Ar 15.08823 16.56710 13.92303
Ar 13.24355 21.70090 9.91809
Ar 12.08972 18.63856 17.77813
Ar 11.66367 20.33998 21.26297
Ar 14.56635 17.79280 20.07921
Ar 15.35711 19.67567 16.46189
Ar 16.76318 0.15577 0.75917
Ar 17.58690 4.07671 2.75559
Ar 21.01892 1.38954 2.35515
Ar 17.97372 5.47816 21.66844
Ar 18.92653 22.12087 4.34672
Ar 17.75380 2.88520 6.26797
Ar 20.59199 1.84860 7.79210
Ar 20.58213 4.23761 5.10827
Ar 17.08520 22.77385 10.56736
Ar 17.03578 2.46625 14.12638
Ar 19.89939 22.20621 14.41805
Ar 19.80678 2.00154 11.36234
Ar 17.48864 22.36279 17.37767
Ar 17.31613 1.98174 20.07007
Ar 19.79883 22.65901 21.52812
Ar 20.82314 1.93316 18.34455
Ar 15.49195 7.43658 0.52343
Ar 18.70287 9.97877 1.74226
Ar 20.49241 7.31255 0.87578
Ar 18.13365 8.85770 21.10122
Ar 17.21258 7.05243 4.39480
Ar 19.13305 5.87452 7.82423
Ar 22.64581 5.81506 7.14405
Ar 20.43611 8.57004 4.82484
Ar 15.69500 3.52642 9.86621
Ar 17.42735 5.83692 14.12512
Ar 20.22257 3.58013 14.78282
Ar 20.06130 6.19284 11.29329
Ar 18.21642 4.55218 17.39365
Ar 14.56314 9.29298 20.09718
Ar 20.93869 5.39825 19.53243
Ar 19.49605 8.21491 17.89759
Ar 16.46722 12.25893 22.41963
Ar 17.12926 13.36290 3.24983
Ar 22.14654 12.24017 0.54241
Ar 19.45841 14.67449 0.42929
Ar 18.10749 9.99053 6.89730
Ar 18.13003 12.70306 10.97174
Ar 21.27366 8.58791 8.39866
Ar 20.00449 12.11179 4.16668
Ar 17.75567 9.00928 10.57024
Ar 16.73640 13.41425 14.69575
Ar 18.71288 10.51163 15.00336
Ar 20.62448 13.25385 13.96495
Ar 16.23969 10.56070 17.42394
Ar 16.65567 13.71052 19.42963
Ar 19.61249 12.00227 19.81144
Ar 21.13539 14.24285 17.49113
Ar 16.91183 17.19646 0.66213
Ar 16.50723 20.19398 3.13203
Ar 20.15248 16.09709 4.29283
Ar 19.82532 19.92717 0.78727
Ar 17.62799 14.23693 7.34623
Ar 16.59230 21.78040 7.02400
Ar 17.84174 19.09743 9.87510
Ar 18.57512 18.79652 6.33809
Ar 18.51422 16.05321 11.35378
Ar 17.17660 19.87776 13.23962
Ar 19.37313 17.32356 14.47179
Ar 20.60452 20.47028 11.46412
Ar 17.61362 16.46725 17.23689
Ar 17.54355 19.38659 19.54388
Ar 20.06800 16.73612 20.41713
Ar 20.15894 19.71967 16.95775
256
frame 98
Ar 0.61811 0.48030 21.30665
Ar 22.08300 3.74526 22.66317
Ar 1.86857 1.57443 1.62316
Ar 2.71210 4.87820 0.34759
Ar 22.37282 0.05877 5.43591
Ar 0.87905 3.82083 9.97253
Ar 2.01133 21.57147 8.10320
Ar 1.75395 2.45804 6.57145
Ar 0.72171 0.27817 10.71458
Ar 0.41304 1.33978 14.21324
Ar 3.77634 21.56313 14.16108
Ar 3.65656 1.85858 12.56075
Ar 0.52428 21.86291 17.85952
Ar 1.53666 3.79586 19.97581
Ar 3.46218 21.46524 19.86491
Ar 2.86998 1.71085 17.43565
Ar 0.24317 7.67541 21.23124
Ar 0.82382 8.00355 2.12973
Ar 4.07623 8.23565 22.49283
Ar 6.23196 11.04176 20.92877
Ar 0.51977 4.50632 3.15307
Ar 1.00715 7.20724 10.61342
Ar 4.17731 5.95308 7.88241
Ar 2.07264 8.48063 7.17305
Ar 0.88474 4.67997 13.58392
Ar 21.05465 7.51018 14.42566
Ar 3.99810 4.53974 15.76486
Ar 1.45152 8.77231 13.86825
Ar 0.42171 4.20071 16.76721
Ar 0.53047 7.82918 17.21867
Ar 3.43862 6.93535 18.98280
Ar 3.88935 10.25027 18.68795
Ar 2.56766 11.87798 22.77393
Ar 1.60944 13.53292 3.14186
Ar 3.56959 10.20558 3.59445
Ar 3.16657 13.58877 19.96861
Ar 0.31568 11.48371 6.27033
Ar 21.30512 13.10606 8.75788
Ar 0.95309 11.04724 9.86169
Ar 1.59224 14.97500 6.16527
Ar 21.10996 9.86913 11.63465
Ar 0.21134 15.89148 13.88305
Ar 0.96756 12.27638 13.09513
Ar 1.34630 14.57944 9.85251
Ar 22.42906 11.02745 16.23540
Ar 0.76680 15.47608 21.40529
Ar 0.43335 11.28514 19.63324
Ar 2.20343 13.29833 16.17404
Ar 22.09669 17.14736 1.64132
Ar 21.39613 19.73958 3.91492
Ar 2.59099 17.29957 3.21340
Ar 1.64254 20.99715 1.48545
Ar 20.92024 16.44724 7.78176
Ar 21.21365 20.43964 8.16030
Ar 2.90468 17.37922 8.36966
Ar 2.53025 20.94393 4.52611
Ar 21.71472 17.31324 11.20179
Ar 22.60633 19.49182 14.24365
Ar 3.68493 16.96523 14.32054
Ar 2.71122 19.55781 11.13128
Ar 0.50544 17.07481 17.68727
Ar 22.38115 19.64528 21.01747
Ar 3.07450 17.56657 20.10309
Ar 3.00731 19.11969 16.93372
Ar 4.83836 0.55082 22.42138
Ar 5.69911 3.12097 2.65742
Ar 9.81029 2.66126 3.03542
Ar 8.70370 2.24537 22.67240
Ar 4.90509 0.93052 5.55416
Ar 5.30170 2.75361 9.10667
Ar 7.31460 21.92661 8.08033
Ar 7.26893 3.84347 5.95140
Ar 5.19564 21.79434 10.81115
Ar 6.84426 2.61008 15.07349
Ar 7.83347 22.12002 13.70758
Ar 7.66771 2.90460 11.65608
Ar 5.93571 22.18114 16.69741
Ar 6.08087 2.38277 19.00475
Ar 8.40835 21.74883 19.75528
Ar 8.99412 1.36180 17.32944
Ar 6.00162 4.67036 21.73152
Ar 6.82941 9.64250 1.58227
Ar 7.90458 7.55237 5.03407
Ar 9.73152 11.29682 21.73757
Ar 4.83810 6.21402 3.77719
Ar 4.65514 8.99515 12.08582
Ar 7.75142 5.78188 9.52131
Ar 6.38900 9.33940 8.59763
Ar 4.22730 5.42671 11.41976
Ar 4.23892 8.24623 15.81808
Ar 8.54262 5.81090 14.28307
Ar 8.32270 9.16523 13.25012
Ar 7.40997 5.59896 17.60575
Ar 6.92130 7.72407 20.39560
Ar 9.59407 5.26200 20.72348
Ar 7.43551 9.78657 16.85163
Ar 8.08684 13.25811 1.25437
Ar 5.44659 14.44516 3.92231
Ar 7.03995 11.05712 4.91626
Ar 11.82070 13.66561 1.46449
Ar 3.68414 11.60596 6.71192
Ar 5.48188 15.30586 7.21683
Ar 8.66209 12.94620 7.62863
Ar 9.67893 14.26102 4.21611
Ar 5.31574 12.67551 10.02513
Ar 4.91034 11.82873 13.95899
Ar 7.98527 13.07707 12.42500
Ar 8.06547 15.56908 9.77971
Ar 6.33319 12.91706 17.55075
Ar 6.37442 14.90899 21.07970
Ar 9.73133 13.01651 15.60752
Ar 9.58337 15.61824 17.87589
Ar 3.76106 15.83904 0.33567
Ar 5.43314 21.52600 2.67223
Ar 8.26839 17.16010 1.94556
Ar 8.63790 20.95258 0.43478
Ar 5.20225 18.75545 5.20033
Ar 6.31385 18.77164 8.64672
Ar 8.73124 16.89371 6.05721
Ar 8.57390 20.99107 4.70820
Ar 4.77334 15.86685 10.69397
Ar 6.17596 18.81364 12.49789
Ar 7.50042 15.69335 14.57277
Ar 9.76049 18.21118 12.04307
Ar 6.41604 18.97764 18.20203
Ar 5.26772 19.66218 22.65438
Ar 8.93044 18.24965 20.87646
Ar 9.55782 19.31665 15.53570
Ar 12.36540 0.37018 0.39895
Ar 10.44544 5.14641 5.58000
Ar 14.12290 0.39365 3.90115
Ar 14.91768 3.02237 0.06423
Ar 11.26106 22.62694 7.15931
Ar 9.55875 2.46575 8.49496
Ar 13.88844 1.87083 7.04003
Ar 13.77167 4.00790 3.67054
Ar 9.97927 22.55565 11.04248
Ar 10.36025 2.41298 13.72167
Ar 14.15501 0.11591 13.01742
Ar 12.43979 2.43271 10.56389
Ar 12.17108 21.94627 16.14697
Ar 11.58535 0.90082 19.55562
Ar 14.35783 21.70051 19.25637
Ar 14.42704 2.40464 17.07050
Ar 8.32748 5.74565 1.90311
Ar 10.23619 9.59536 3.09267
Ar 13.20710 7.94915 4.17333
Ar 11.75532 7.24552 22.48365
Ar 10.40076 8.45826 7.62677
Ar 10.76474 9.95125 10.60721
Ar 12.89525 5.14207 8.28993
Ar 13.97412 9.05225 7.76944
Ar 11.24023 5.94211 11.47627
Ar 11.55831 8.11483 14.50475
Ar 13.61570 4.38307 13.70278
Ar 14.67186 6.97468 10.82911
Ar 11.10247 4.25960 16.69108
Ar 10.90970 8.52863 19.10811
Ar 13.95206 4.83902 19.98804
Ar 14.86777 6.16511 16.95838
Ar 13.23869 10.03592 1.01048
Ar 13.70930 13.65264 4.55413
Ar 15.49944 10.58926 4.87117
Ar 13.97688 14.47830 21.40075
Ar 11.87059 11.48103 6.27639
Ar 12.26731 15.03038 8.09863
Ar 14.43531 10.90670 11.43642
Ar 14.70930 12.57721 8.26813
Ar 11.09278 13.97719 11.23178
Ar 11.69721 16.22323 14.54755
Ar 15.14924 8.58074 14.29488
Ar 15.06790 14.10101 11.42990
Ar 13.36093 12.87669 14.28862
Ar 10.57140 15.02940 21.17793
Ar 11.89397 12.62286 18.99086
Ar 14.05766 15.46614 17.24537
Ar 12.06695 17.45143 1.25963
Ar 11.38238 21.23186 2.88950
Ar 15.99770 17.03667 4.62265
Ar 14.64794 20.04136 0.03912
Ar 12.15135 16.73833 5.07080
Ar 11.48908 19.32462 7.98011
Ar 15.20426 18.01982 8.02057
Ar 13.50041 19.77406 5.21815
Ar 13.04082 17.81405 10.58910
Ar 12.37251 20.02822 13.09974
Ar 15.15034 16.66705 13.86554
Ar 13.22201 21.57621 9.94584
Ar 12.11848 18.64141 17.82812
Ar 11.70273 20.32553 21.24708
Ar 14.39390 17.72377 20.08933
Ar 15.30451 19.66802 16.55264
Ar 16.76872 0.08483 0.77665
Ar 17.59786 4.04306 2.74659
Ar 21.02495 1.38251 2.36764
Ar 17.97558 5.47728 21.71164
Ar 18.90769 22.17758 4.34473
Ar 17.61101 2.89049 6.16220
Ar 20.59970 1.91468 7.78197
Ar 20.69219 4.18164 5.14863
Ar 17.03541 22.70006 10.50688
Ar 16.93796 2.47323 14.10689
Ar 19.86734 22.23485 14.40117
Ar 19.84211 2.03516 11.31694
Ar 17.42338 22.26474 17.41861
Ar 17.36421 2.00680 20.12822
Ar 19.74509 22.64506 21.44518
Ar 20.84872 2.00621 18.41166
Ar 15.40782 7.37896 0.54728
Ar 18.80698 9.88233 1.75332
Ar 20.49346 7.39475 0.79047
Ar 18.13553 8.95899 21.11381
Ar 17.28546 7.12592 4.36857
Ar 19.00648 5.84636 7.82551
Ar 22.64699 5.89235 7.05258
Ar 20.54507 8.41847 4.76257
Ar 15.73408 3.55603 9.81630
Ar 17.56426 5.91103 14.09296
Ar 20.27731 3.50496 14.70650
Ar 20.05663 6.13566 11.19861
Ar 18.21514 4.50959 17.37990
Ar 14.49146 9.31866 20.13810
Ar 20.89515 5.42892 19.49897
Ar 19.49177 8.23271 17.93129
Ar 16.52602 12.36982 22.50449
Ar 17.03771 13.37870 3.23706
Ar 22.07504 12.14627 0.51894
Ar 19.51347 14.69246 0.48957
Ar 18.14010 10.05631 6.86664
Ar 18.10736 12.68540 11.01162
Ar 21.23506 8.53373 8.41264
Ar 20.13771 12.15135 4.14994
Ar 17.71171 9.01998 10.54631
Ar 16.74269 13.37095 14.72191
Ar 18.77154 10.52540 15.02108
Ar 20.63318 13.31488 14.10284
Ar 16.20400 10.54773 17.36314
Ar 16.58594 13.77830 19.52197
Ar 19.54698 11.95385 19.79718
Ar 21.07720 14.37588 17.48155
Ar 17.03103 17.32177 0.76188
Ar 16.60531 20.06910 3.18364
Ar 20.09075 16.09516 4.28234
Ar 19.71862 19.93160 0.89252
Ar 17.74341 14.28690 7.36271
Ar 16.58573 21.74705 6.94709
Ar 17.83919 19.16593 9.82665
Ar 18.60274 18.81771 6.34102
Ar 18.58115 15.99143 11.35250
Ar 17.10910 19.83565 13.16255
Ar 19.34756 17.39638 14.46225
Ar 20.56033 20.50262 11.43916
Ar 17.70770 16.43029 17.18903
Ar 17.59509 19.41695 19.53463
Ar 20.04119 16.78528 20.44244
Ar 20.15606 19.57514 16.92439
256
frame 99
Ar 0.48084 0.46958 21.32550
Ar 22.01167 3.75305 22.64622
Ar 1.88406 1.48945 1.60835
Ar 2.74815 4.79277 0.30319
Ar 22.27132 0.09639 5.44640
Ar 0.81098 3.86728 10.01122
Ar 2.13638 21.60945 8.06821
Ar 1.88722 2.38048 6.53444
Ar 0.76573 0.32379 10.68823
Ar 0.48382 1.32424 14.22886
Ar 3.83151 21.51562 14.24586
Ar 3.69534 1.81297 12.42600
Ar 0.55340 21.82826 17.84340
Ar 1.55350 3.71631 19.91227
Ar 3.50380 21.43977 19.94935
Ar 2.83634 1.61522 17.53318
Ar 0.32390 7.62896 21.22123
Ar 0.79490 7.99904 2.16991
Ar 4.12632 8.28996 22.38626
Ar 6.31986 11.07301 20.93938
Ar 0.56322 4.41136 3.11497
Ar 1.00212 7.24874 10.63053
Ar 4.11364 6.01377 7.89944
Ar 2.24746 8.49870 7.12884
Ar 0.89725 4.68955 13.58857
Ar 21.07754 7.60395 14.51488
Ar 4.03578 4.51293 15.88595
Ar 1.49723 8.71687 13.87301
Ar 0.36347 4.23730 16.92919
Ar 0.66545 7.74244 17.27792
Ar 3.41229 6.94200 18.91757
Ar 3.93544 10.23831 18.75163
Ar 2.62012 12.08234 22.76042
Ar 1.57147 13.42760 3.09102
Ar 3.54307 10.18482 3.56832
Ar 3.10598 13.52265 19.88168
Ar 0.27283 11.52101 6.31683
Ar 21.23799 13.04562 8.74615
Ar 0.98295 10.99241 9.82179
Ar 1.50345 14.95104 6.15674
Ar 20.99406 9.74119 11.64146
Ar 0.20818 15.90584 13.90677
Ar 0.86664 12.30275 13.07697
Ar 1.35436 14.48870 9.86065
Ar 22.49465 11.05963 16.32648
Ar 0.82885 15.40261 21.43522
Ar 0.50572 11.35047 19.57720
Ar 2.27401 13.29830 16.23440
Ar 22.00585 17.17649 1.60632
Ar 21.34510 19.58361 3.92048
Ar 2.57798 17.16227 3.10780
Ar 1.55708 21.05215 1.47750
Ar 20.97401 16.44949 7.76372
Ar 21.14645 20.52219 8.16196
Ar 2.86199 17.36916 8.30748
Ar 2.47516 20.85715 4.53198
Ar 21.81085 17.32661 11.13062
Ar 22.55514 19.50190 14.27438
Ar 3.81263 16.99207 14.43088
Ar 2.81645 19.52901 11.26834
Ar 0.49369 17.04853 17.69966
Ar 22.45726 19.67583 21.01086
Ar 3.18949 17.62894 20.09965
Ar 3.03027 19.10316 16.88967
Ar 4.78468 0.52065 22.58403
Ar 5.53379 3.14066 2.64453
Ar 9.94045 2.72435 3.03591
Ar 8.59047 2.22963 22.71759
Ar 4.89920 0.96037 5.55289
Ar 5.31571 2.70122 9.21981
Ar 7.31811 21.83768 7.99043
Ar 7.19869 3.79945 5.99177
Ar 5.13313 21.86417 10.73932
Ar 6.88469 2.64784 15.12778
Ar 7.79551 22.21606 13.63624
Ar 7.61027 2.98173 11.60735
Ar 5.93853 22.26622 16.70417
Ar 6.16636 2.37172 19.06838
Ar 8.46185 21.81481 19.77171
Ar 8.91533 1.48483 17.36597
Ar 5.90868 4.65764 21.75934
Ar 6.78486 9.62596 1.61594
Ar 7.91930 7.55091 5.07348
Ar 9.84579 11.23610 21.66369
Ar 4.82263 6.23066 3.83865
Ar 4.62016 8.90682 12.06061
Ar 7.76740 5.73610 9.45743
Ar 6.35869 9.43574 8.60429
Ar 4.26066 5.39397 11.38744
Ar 4.12916 8.23256 15.86516
Ar 8.49088 5.70267 14.30854
Ar 8.27953 9.22784 13.25715
Ar 7.42194 5.82112 17.71352
Ar 7.00619 7.84868 20.38736
Ar 9.60519 5.22136 20.72978
Ar 7.45064 9.91595 16.82195
Ar 8.08218 13.24505 1.14437
Ar 5.37509 14.44177 3.78711
Ar 7.17957 11.18913 4.87345
Ar 11.83771 13.74107 1.59301
Ar 3.72355 11.64524 6.79770
Ar 5.41106 15.19810 7.14808
Ar 8.69992 13.00625 7.55464
Ar 9.60468 14.29793 4.22914
Ar 5.29409 12.66013 9.99498
Ar 4.87537 11.78499 14.16933
Ar 8.03414 13.01847 12.39537
Ar 8.09901 15.61075 9.77744
Ar 6.31195 12.77854 17.54403
Ar 6.33057 14.90750 21.07108
Ar 9.76528 12.93705 15.57181
Ar 9.67238 15.57550 17.92005
Ar 3.65408 15.75985 0.29169
Ar 5.47758 21.59254 2.70459
Ar 8.24705 17.26752 1.94729
Ar 8.60664 21.03298 0.54925
Ar 5.21868 18.72066 5.17976
Ar 6.32183 18.95298 8.59408
Ar 8.63792 16.82890 6.00410
Ar 8.56035 20.96174 4.64898
Ar 4.80290 15.87053 10.70210
Ar 6.16543 18.78685 12.55717
Ar 7.47665 15.70994 14.50046
Ar 9.70633 18.22465 12.05569
Ar 6.33408 19.02463 18.14712
Ar 5.17154 19.69820 22.62182
Ar 8.94663 18.28911 20.80909
Ar 9.48002 19.34133 15.57217
Ar 12.54486 0.43293 0.40856
Ar 10.55704 5.27943 5.43910
Ar 14.20215 0.27464 3.93385
Ar 14.99831 2.99346 0.08857
Ar 11.33964 22.67155 7.12663
Ar 9.39612 2.50782 8.42066
Ar 13.89763 1.76059 7.06747
Ar 13.72991 3.90825 3.66871
Ar 9.90790 22.48056 11.10736
Ar 10.45232 2.39592 13.77981
Ar 14.18978 0.13715 12.97840
Ar 12.45394 2.39192 10.54824
Ar 12.20158 21.94788 16.13539
Ar 11.58287 0.91319 19.55796
Ar 14.31485 21.76569 19.27202
Ar 14.51533 2.44391 17.05986
Ar 8.27441 5.79887 1.91046
Ar 10.12262 9.60571 3.23764
Ar 13.28333 8.04107 4.16863
Ar 11.78649 7.30511 22.38719
Ar 10.30187 8.41826 7.54587
Ar 10.84852 9.93933 10.52493
Ar 12.95107 5.04399 8.18372
Ar 13.91235 9.03968 7.82766
Ar 11.16966 5.98481 11.44804
Ar 11.53809 8.18766 14.49415
Ar 13.58231 4.47584 13.63604
Ar 14.68769 6.94908 10.89414
Ar 11.15733 4.21188 16.74181
Ar 10.82484 8.47191 19.09792
Ar 13.91872 4.74779 19.99118
Ar 14.74122 6.15792 16.96245
Ar 13.22181 10.00730 1.00533
Ar 13.76812 13.70552 4.42780
Ar 15.62759 10.54939 4.91027
Ar 13.96401 14.50072 21.47802
Ar 11.91701 11.52380 6.23437
Ar 12.37940 14.97961 8.04294
Ar 14.38317 10.83511 11.48050
Ar 14.67951 12.49212 8.32614
Ar 11.07555 13.94906 11.17266
Ar 11.75974 16.18239 14.61052
Ar 15.07660 8.64273 14.30556
Ar 15.04807 14.15962 11.49094
Ar 13.26949 12.88774 14.20163
Ar 10.62785 14.99468 21.29293
Ar 11.92192 12.72331 18.89085
Ar 13.99283 15.37594 17.36480
Ar 12.06541 17.41306 1.27783
Ar 11.40538 21.25692 2.91235
Ar 16.03673 17.11105 4.56211
Ar 14.67189 20.13568 0.12837
Ar 12.23618 16.64107 5.02045
Ar 11.33434 19.36253 7.92509
Ar 15.20902 17.92116 7.99007
Ar 13.49695 19.76605 5.18514
Ar 13.07345 17.75952 10.62193
Ar 12.31319 20.05545 13.15692
Ar 15.22746 16.78369 13.81249
Ar 13.23407 21.45586 9.96252
Ar 12.11597 18.64759 17.86471
Ar 11.71794 20.30734 21.21328
Ar 14.25003 17.65223 20.12467
Ar 15.25025 19.62987 16.61707
Ar 16.78334 0.01154 0.80234
Ar 17.61253 3.99364 2.71455
Ar 21.02981 1.37995 2.36785
Ar 17.97445 5.45018 21.75297
Ar 18.90501 22.27190 4.35595
Ar 17.42922 2.88009 6.06189
Ar 20.61547 1.97304 7.80297
Ar 20.74064 4.09406 5.13416
Ar 16.97918 22.62796 10.45001
Ar 16.82669 2.45378 14.08443
Ar 19.83012 22.28214 14.39593
Ar 19.88524 2.07275 11.28144
Ar 17.37995 22.19945 17.44817
Ar 17.39439 2.04593 20.18017
Ar 19.70871 22.62834 21.35565
Ar 20.87389 2.06115 18.47898
Ar 15.33658 7.30590 0.57817
Ar 18.84308 9.86919 1.79554
Ar 20.52628 7.38206 0.68071
Ar 18.12596 9.06787 21.13352
Ar 17.34136 7.21133 4.34902
Ar 18.85766 5.81886 7.82244
Ar 22.70873 5.94473 6.98091
Ar 20.68154 8.26028 4.69382
Ar 15.80074 3.58116 9.77282
Ar 17.70223 6.00621 14.05065
Ar 20.35251 3.42986 14.62315
Ar 20.06128 6.07024 11.11125
Ar 18.19353 4.46529 17.37660
Ar 14.40774 9.33747 20.19863
Ar 20.86735 5.45489 19.47537
Ar 19.48761 8.26225 17.94363
Ar 16.59757 12.43829 22.64078
Ar 16.94103 13.41622 3.21306
Ar 21.96913 12.04618 0.49928
Ar 19.56485 14.70025 0.55782
Ar 18.19691 10.12468 6.86938
Ar 18.11234 12.61242 11.04429
Ar 21.17786 8.53581 8.43502
Ar 20.29781 12.19493 4.14783
Ar 17.66548 9.02828 10.52003
Ar 16.76853 13.34687 14.75264
Ar 18.84465 10.50706 15.02493
Ar 20.61353 13.39303 14.21969
Ar 16.16565 10.54346 17.30414
Ar 16.54622 13.86581 19.53263
Ar 19.49928 11.90216 19.78391
Ar 21.01306 14.50491 17.47854
Ar 17.14541 17.43950 0.85676
Ar 16.68091 19.94924 3.21625
Ar 20.01131 16.08015 4.27534
Ar 19.59802 19.93244 0.98845
Ar 17.86842 14.34348 7.37335
Ar 16.55726 21.71664 6.87958
Ar 17.84449 19.23557 9.76706
Ar 18.62702 18.83840 6.32807
Ar 18.62028 15.93959 11.34405
Ar 17.02844 19.80924 13.10033
Ar 19.35180 17.45613 14.40619
Ar 20.51529 20.57335 11.45054
Ar 17.78002 16.38366 17.17546
Ar 17.64697 19.44589 19.54479
Ar 20.01624 16.83488 20.45829
Ar 20.16298 19.44712 16.92613
